#============================================================================
# Opacities computed by OpTool        <a^n>=  1.6577E-2  2.2191E-2  1.0326E-1
# Method:   DHS  fmax=  0.000
# Parameters:
#   amin [um]=      0.010 amax [um]=    500.000  na  =   71     apow=   3.5    
#   lmin [um]=      0.100 lmax [um]=  10000.000  nlam=  101     nang=   180
#   porosity =      0.000 p_mantle =      0.000  fmax=  0.0     chop=   0.0
# Composition:
#  Where   mfrac  rho   Material
#  -----   -----  ----  -----------------------------------------------------
#  core    0.496  1.50  c-org
#  core    0.093  4.83  fes
#  core    0.411  3.30  astrosil
#  - - -   - - -  -  -  - - - - - - - - - - - - - - - - - - - - - - - - - - -
#  grain   1.000  2.11  mixture of  3 materials
#----------------------------------------------------------------------------
# Command: /home/hyp0515/bin/optool -c c-org 0.3966 fes 0.0743 astrosil \
#   0.3291 -a 0.01 500.0 3.5 -l 0.1 10000 101 -mie -radmc -o \
#   ./opacity_table/
#============================================================================
# Output file formatted for RADMC-3D, dustkappa, no scattering matrix
#    iformat
#    nlambda
#    lambda[um]  kabs [cm^2/g]  ksca [cm^2/g]    g_asymmetry
#============================================================================
           3
         101
   1.000000E-01   2.089521E+03   1.492214E+03   6.861502E-01
   1.122018E-01   1.946186E+03   1.449412E+03   6.914228E-01
   1.258925E-01   1.777247E+03   1.450008E+03   6.864204E-01
   1.412538E-01   1.571288E+03   1.453741E+03   6.825187E-01
   1.584893E-01   1.218499E+03   1.511405E+03   6.762778E-01
   1.778279E-01   1.071204E+03   1.373994E+03   6.997548E-01
   1.995262E-01   1.043275E+03   1.258731E+03   7.085876E-01
   2.238721E-01   9.791040E+02   1.199129E+03   7.063714E-01
   2.511886E-01   8.895668E+02   1.166685E+03   6.984892E-01
   2.818383E-01   7.991728E+02   1.133215E+03   6.923037E-01
   3.162278E-01   7.207372E+02   1.102675E+03   6.849592E-01
   3.548134E-01   5.935830E+02   1.113591E+03   6.666973E-01
   3.981072E-01   4.956989E+02   1.093445E+03   6.565552E-01
   4.466836E-01   4.103338E+02   1.078812E+03   6.464424E-01
   5.011872E-01   3.687674E+02   1.031941E+03   6.473820E-01
   5.623413E-01   3.290798E+02   9.791248E+02   6.466891E-01
   6.309573E-01   2.992842E+02   9.269498E+02   6.442248E-01
   7.079458E-01   2.861136E+02   8.688111E+02   6.453415E-01
   7.943282E-01   2.777248E+02   8.213974E+02   6.488466E-01
   8.912509E-01   2.574215E+02   7.742096E+02   6.492781E-01
   1.000000E+00   2.343113E+02   7.346828E+02   6.446259E-01
   1.122018E+00   2.202793E+02   6.940576E+02   6.429739E-01
   1.258925E+00   2.088112E+02   6.591781E+02   6.459440E-01
   1.412538E+00   2.057324E+02   6.097685E+02   6.511610E-01
   1.584893E+00   2.009869E+02   5.671526E+02   6.512873E-01
   1.778279E+00   1.884564E+02   5.383075E+02   6.481258E-01
   1.995262E+00   1.709332E+02   5.175355E+02   6.473463E-01
   2.238721E+00   1.625630E+02   4.819528E+02   6.511606E-01
   2.511886E+00   1.607094E+02   4.437704E+02   6.556846E-01
   2.818383E+00   1.840956E+02   3.906651E+02   6.728781E-01
   3.162278E+00   1.944503E+02   3.579150E+02   6.804438E-01
   3.548134E+00   1.579410E+02   3.646649E+02   6.544334E-01
   3.981072E+00   1.359625E+02   3.474160E+02   6.533587E-01
   4.466836E+00   1.281758E+02   3.247821E+02   6.575454E-01
   5.011872E+00   1.278947E+02   2.979493E+02   6.698394E-01
   5.623413E+00   1.427821E+02   2.560485E+02   6.974489E-01
   6.309573E+00   1.531411E+02   2.293215E+02   7.052586E-01
   7.079458E+00   1.396614E+02   2.167345E+02   7.049865E-01
   7.943282E+00   1.462916E+02   1.801963E+02   7.421018E-01
   8.912509E+00   1.924355E+02   1.384762E+02   7.727618E-01
   1.000000E+01   2.233177E+02   1.353577E+02   7.394300E-01
   1.122018E+01   2.128572E+02   1.378313E+02   7.137173E-01
   1.258925E+01   1.926470E+02   1.347061E+02   7.059599E-01
   1.412538E+01   1.833833E+02   1.261941E+02   7.055314E-01
   1.584893E+01   1.870531E+02   1.185624E+02   6.950498E-01
   1.778279E+01   1.786519E+02   1.164239E+02   6.773251E-01
   1.995262E+01   1.662311E+02   1.137676E+02   6.638111E-01
   2.238721E+01   1.551463E+02   1.078713E+02   6.610722E-01
   2.511886E+01   1.513049E+02   1.005593E+02   6.584000E-01
   2.818383E+01   1.484111E+02   9.784157E+01   6.370964E-01
   3.162278E+01   1.359766E+02   9.665886E+01   6.177899E-01
   3.548134E+01   1.224207E+02   9.368970E+01   6.092577E-01
   3.981072E+01   1.126800E+02   9.002036E+01   6.006349E-01
   4.466836E+01   1.026431E+02   8.630434E+01   5.946857E-01
   5.011872E+01   9.436070E+01   8.247072E+01   5.883019E-01
   5.623413E+01   8.629706E+01   7.908294E+01   5.808260E-01
   6.309573E+01   7.885093E+01   7.575626E+01   5.733756E-01
   7.079458E+01   7.187333E+01   7.249317E+01   5.658580E-01
   7.943282E+01   6.535867E+01   6.951383E+01   5.579232E-01
   8.912509E+01   5.944914E+01   6.667606E+01   5.498915E-01
   1.000000E+02   5.378507E+01   6.378548E+01   5.409475E-01
   1.122018E+02   4.855697E+01   6.096746E+01   5.313288E-01
   1.258925E+02   4.426822E+01   5.841483E+01   5.231652E-01
   1.412538E+02   4.000744E+01   5.606874E+01   5.138265E-01
   1.584893E+02   3.574465E+01   5.325043E+01   5.031543E-01
   1.778279E+02   3.217741E+01   5.057025E+01   4.929939E-01
   1.995262E+02   2.968716E+01   4.844885E+01   4.859726E-01
   2.238721E+02   2.660774E+01   4.628871E+01   4.757622E-01
   2.511886E+02   2.307602E+01   4.364217E+01   4.620888E-01
   2.818383E+02   2.067243E+01   4.140138E+01   4.513401E-01
   3.162278E+02   1.923639E+01   3.984322E+01   4.451781E-01
   3.548134E+02   1.687971E+01   3.768839E+01   4.344955E-01
   3.981072E+02   1.382826E+01   3.516147E+01   4.161934E-01
   4.466836E+02   1.240567E+01   3.362213E+01   4.063687E-01
   5.011872E+02   1.115476E+01   3.277463E+01   3.967829E-01
   5.623413E+02   9.144652E+00   3.073536E+01   3.836063E-01
   6.309573E+02   6.965747E+00   2.788500E+01   3.652850E-01
   7.079458E+02   6.358636E+00   2.645331E+01   3.529471E-01
   7.943282E+02   5.985747E+00   2.567844E+01   3.549947E-01
   8.912509E+02   4.745446E+00   2.333591E+01   3.462274E-01
   1.000000E+03   3.453379E+00   2.045221E+01   3.333317E-01
   1.122018E+03   3.295582E+00   1.914467E+01   3.141222E-01
   1.258925E+03   2.865279E+00   1.776287E+01   2.898449E-01
   1.412538E+03   2.153135E+00   1.607769E+01   3.025905E-01
   1.584893E+03   1.588066E+00   1.452211E+01   3.062688E-01
   1.778279E+03   1.210036E+00   1.302647E+01   3.122431E-01
   1.995262E+03   1.053778E+00   1.175571E+01   3.043426E-01
   2.238721E+03   6.047822E-01   9.085256E+00   3.064450E-01
   2.511886E+03   4.833195E-01   7.317657E+00   3.374675E-01
   2.818383E+03   3.739661E-01   5.463159E+00   3.768085E-01
   3.162278E+03   1.855592E-01   2.516947E+00   3.765339E-01
   3.548134E+03   1.065608E-01   1.345036E+00   2.643995E-01
   3.981072E+03   7.270283E-02   7.862486E-01   1.911376E-01
   4.466836E+03   5.299162E-02   4.691534E-01   1.433020E-01
   5.011872E+03   3.997775E-02   2.828043E-01   1.098010E-01
   5.623413E+03   3.084759E-02   1.718634E-01   8.521678E-02
   6.309573E+03   2.430334E-02   1.051801E-01   6.665653E-02
   7.079458E+03   1.939768E-02   6.475277E-02   5.239524E-02
   7.943282E+03   1.563614E-02   4.006037E-02   4.131662E-02
   8.912509E+03   1.270671E-02   2.488326E-02   3.264963E-02
   1.000000E+04   1.037651E-02   1.550620E-02   2.583823E-02
