#============================================================================
# Opacities computed by OpTool        <a^n>=  1.6577E-2  2.2191E-2  1.0326E-1
# Method:   DHS  fmax=  0.000
# Parameters:
#   amin [um]=      0.010 amax [um]=    500.000  na  =   71     apow=   3.5    
#   lmin [um]=      0.100 lmax [um]=  10000.000  nlam=  101     nang=   180
#   porosity =      0.000 p_mantle =      0.000  fmax=  0.0     chop=   0.0
# Composition:
#  Where   mfrac  rho   Material
#  -----   -----  ----  -----------------------------------------------------
#  core    0.200  0.92  h2o-w
#  core    0.397  1.50  c-org
#  core    0.074  4.83  fes
#  core    0.329  3.30  astrosil
#  - - -   - - -  -  -  - - - - - - - - - - - - - - - - - - - - - - - - - - -
#  grain   1.000  1.68  mixture of  4 materials
#----------------------------------------------------------------------------
# Command: /home/hyp0515/bin/optool -c h2o-w 0.2 c-org 0.3966 fes 0.0743 \
#   astrosil 0.3291 -a 0.01 500.0 3.5 -l 0.1 10000 101 -mie -radmc -o \
#   ./opacity_table/
#============================================================================
# Output file formatted for RADMC-3D, dustkappa, no scattering matrix
#    iformat
#    nlambda
#    lambda[um]  kabs [cm^2/g]  ksca [cm^2/g]    g_asymmetry
#============================================================================
           3
         101
   1.000000E-01   2.460634E+03   1.658047E+03   7.373162E-01
   1.122018E-01   2.283196E+03   1.632304E+03   7.397429E-01
   1.258925E-01   2.083534E+03   1.652333E+03   7.321238E-01
   1.412538E-01   1.960902E+03   1.606982E+03   7.268018E-01
   1.584893E-01   1.379826E+03   1.879118E+03   6.926661E-01
   1.778279E-01   1.102330E+03   1.722789E+03   7.200718E-01
   1.995262E-01   1.074146E+03   1.553150E+03   7.339389E-01
   2.238721E-01   1.006251E+03   1.467462E+03   7.353319E-01
   2.511886E-01   9.062693E+02   1.422501E+03   7.314796E-01
   2.818383E-01   8.014193E+02   1.376865E+03   7.267866E-01
   3.162278E-01   7.156826E+02   1.328107E+03   7.204405E-01
   3.548134E-01   5.845292E+02   1.333100E+03   7.067070E-01
   3.981072E-01   4.815248E+02   1.316451E+03   7.012273E-01
   4.466836E-01   3.835185E+02   1.287594E+03   6.959716E-01
   5.011872E-01   3.407234E+02   1.217281E+03   6.938586E-01
   5.623413E-01   3.092911E+02   1.152263E+03   6.918444E-01
   6.309573E-01   2.812234E+02   1.108074E+03   6.926070E-01
   7.079458E-01   2.636438E+02   1.039774E+03   6.978897E-01
   7.943282E-01   2.513143E+02   9.679094E+02   6.969095E-01
   8.912509E-01   2.381500E+02   9.093170E+02   6.945922E-01
   1.000000E+00   2.180783E+02   8.762671E+02   6.941814E-01
   1.122018E+00   2.015543E+02   8.265200E+02   6.980454E-01
   1.258925E+00   1.877000E+02   7.716080E+02   6.969407E-01
   1.412538E+00   1.905204E+02   7.128954E+02   6.980813E-01
   1.584893E+00   1.885959E+02   6.736548E+02   7.017178E-01
   1.778279E+00   1.736086E+02   6.368515E+02   7.045887E-01
   1.995262E+00   1.586373E+02   5.965630E+02   7.036681E-01
   2.238721E+00   1.537924E+02   5.515543E+02   7.066765E-01
   2.511886E+00   1.546576E+02   5.062320E+02   7.183595E-01
   2.818383E+00   2.053502E+02   3.936373E+02   7.717428E-01
   3.162278E+00   3.807824E+02   3.519715E+02   7.341734E-01
   3.548134E+00   1.672256E+02   4.420374E+02   6.865005E-01
   3.981072E+00   1.431897E+02   4.121872E+02   6.993342E-01
   4.466836E+00   1.481086E+02   3.686566E+02   7.132367E-01
   5.011872E+00   1.312141E+02   3.469100E+02   7.140611E-01
   5.623413E+00   1.535616E+02   2.928476E+02   7.420442E-01
   6.309573E+00   1.787899E+02   2.583757E+02   7.525846E-01
   7.079458E+00   1.594253E+02   2.479341E+02   7.502245E-01
   7.943282E+00   1.584992E+02   2.120309E+02   7.761271E-01
   8.912509E+00   2.020775E+02   1.629216E+02   8.055158E-01
   1.000000E+01   2.364120E+02   1.492652E+02   7.918443E-01
   1.122018E+01   2.631487E+02   1.426241E+02   7.702766E-01
   1.258925E+01   2.528283E+02   1.505358E+02   7.374293E-01
   1.412538E+01   2.216250E+02   1.513913E+02   7.257206E-01
   1.584893E+01   2.084186E+02   1.430096E+02   7.239067E-01
   1.778279E+01   1.959760E+02   1.388995E+02   7.133454E-01
   1.995262E+01   1.816115E+02   1.350382E+02   7.037030E-01
   2.238721E+01   1.652598E+02   1.279374E+02   7.042862E-01
   2.511886E+01   1.608258E+02   1.167644E+02   7.090738E-01
   2.818383E+01   1.621589E+02   1.098537E+02   6.993804E-01
   3.162278E+01   1.546718E+02   1.065653E+02   6.858100E-01
   3.548134E+01   1.450813E+02   1.016747E+02   6.795254E-01
   3.981072E+01   1.398290E+02   9.602942E+01   6.729694E-01
   4.466836E+01   1.425741E+02   8.827250E+01   6.678725E-01
   5.011872E+01   1.288447E+02   9.354145E+01   6.243743E-01
   5.623413E+01   1.091983E+02   9.226015E+01   6.177034E-01
   6.309573E+01   1.011792E+02   8.562088E+01   6.230107E-01
   7.079458E+01   9.452779E+01   8.253494E+01   6.097442E-01
   7.943282E+01   8.287586E+01   8.109877E+01   5.970888E-01
   8.912509E+01   7.292442E+01   7.887058E+01   5.864952E-01
   1.000000E+02   6.437649E+01   7.639763E+01   5.757390E-01
   1.122018E+02   5.723402E+01   7.388367E+01   5.659355E-01
   1.258925E+02   5.079600E+01   7.126578E+01   5.564542E-01
   1.412538E+02   4.439941E+01   6.853072E+01   5.443684E-01
   1.584893E+02   3.912741E+01   6.561650E+01   5.319345E-01
   1.778279E+02   3.535152E+01   6.311518E+01   5.236188E-01
   1.995262E+02   3.135020E+01   6.047735E+01   5.165328E-01
   2.238721E+02   2.683250E+01   5.747109E+01   5.040668E-01
   2.511886E+02   2.323615E+01   5.457455E+01   4.880139E-01
   2.818383E+02   2.118900E+01   5.274273E+01   4.812101E-01
   3.162278E+02   1.837412E+01   5.014367E+01   4.755900E-01
   3.548134E+02   1.518352E+01   4.694758E+01   4.643080E-01
   3.981072E+02   1.264640E+01   4.423944E+01   4.424105E-01
   4.466836E+02   1.162823E+01   4.322573E+01   4.384011E-01
   5.011872E+02   9.272191E+00   4.094430E+01   4.319986E-01
   5.623413E+02   6.817606E+00   3.731790E+01   4.168186E-01
   6.309573E+02   5.620088E+00   3.487033E+01   3.977557E-01
   7.079458E+02   5.410913E+00   3.411337E+01   3.979931E-01
   7.943282E+02   4.354002E+00   3.117865E+01   3.966096E-01
   8.912509E+02   3.001182E+00   2.715947E+01   3.806561E-01
   1.000000E+03   2.510003E+00   2.485801E+01   3.574191E-01
   1.122018E+03   2.271648E+00   2.383310E+01   3.572992E-01
   1.258925E+03   1.673384E+00   2.161278E+01   3.771309E-01
   1.412538E+03   1.238129E+00   1.916633E+01   3.802216E-01
   1.584893E+03   9.386824E-01   1.653027E+01   3.880807E-01
   1.778279E+03   7.574645E-01   1.417600E+01   3.816383E-01
   1.995262E+03   4.955250E-01   1.095196E+01   3.739241E-01
   2.238721E+03   3.822037E-01   8.545067E+00   3.867111E-01
   2.511886E+03   2.898180E-01   6.127241E+00   4.135442E-01
   2.818383E+03   1.729727E-01   3.271334E+00   3.544528E-01
   3.162278E+03   1.137436E-01   1.911495E+00   2.560500E-01
   3.548134E+03   8.177363E-02   1.162542E+00   1.895560E-01
   3.981072E+03   6.124039E-02   7.086648E-01   1.442982E-01
   4.466836E+03   4.695306E-02   4.321756E-01   1.117352E-01
   5.011872E+03   3.660058E-02   2.642887E-01   8.739042E-02
   5.623413E+03   2.891047E-02   1.622867E-01   6.875821E-02
   6.309573E+03   2.315040E-02   1.000899E-01   5.429399E-02
   7.079458E+03   1.870244E-02   6.198029E-02   4.296663E-02
   7.943282E+03   1.521552E-02   3.851660E-02   3.404874E-02
   8.912509E+03   1.245239E-02   2.400655E-02   2.700464E-02
   1.000000E+04   1.022276E-02   1.499955E-02   2.142933E-02
