#============================================================================
# Opacities computed by OpTool        <a^n>=  1.6577E-2  2.2191E-2  1.0326E-1
# Method:   DHS  fmax=  0.000
# Parameters:
#   amin [um]=      0.010 amax [um]=    500.000  na  =   71     apow=   3.5    
#   lmin [um]=      0.100 lmax [um]=  10000.000  nlam=  101     nang=   180
#   porosity =      0.000 p_mantle =      0.000  fmax=  0.0     chop=   0.0
# Composition:
#  Where   mfrac  rho   Material
#  -----   -----  ----  -----------------------------------------------------
#  core    0.184  4.83  fes
#  core    0.816  3.30  astrosil
#  - - -   - - -  -  -  - - - - - - - - - - - - - - - - - - - - - - - - - - -
#  grain   1.000  3.50  mixture of  2 materials
#----------------------------------------------------------------------------
# Command: /home/hyp0515/bin/optool -c fes 0.0743 astrosil 0.3291 -a 0.01 \
#   500.0 3.5 -l 0.1 10000 101 -mie -radmc -o ./opacity_table/
#============================================================================
# Output file formatted for RADMC-3D, dustkappa, no scattering matrix
#    iformat
#    nlambda
#    lambda[um]  kabs [cm^2/g]  ksca [cm^2/g]    g_asymmetry
#============================================================================
           3
         101
   1.000000E-01   1.240703E+03   1.024180E+03   6.455787E-01
   1.122018E-01   1.171802E+03   9.967898E+02   6.423963E-01
   1.258925E-01   1.101738E+03   9.659532E+02   6.394308E-01
   1.412538E-01   1.026937E+03   9.506901E+02   6.295424E-01
   1.584893E-01   8.731038E+02   9.787785E+02   6.170946E-01
   1.778279E-01   6.874671E+02   1.005214E+03   6.036661E-01
   1.995262E-01   5.513891E+02   1.001118E+03   5.940884E-01
   2.238721E-01   4.782646E+02   9.563315E+02   5.954140E-01
   2.511886E-01   4.524593E+02   8.903626E+02   6.028317E-01
   2.818383E-01   4.315950E+02   8.343150E+02   6.088531E-01
   3.162278E-01   4.088108E+02   7.821847E+02   6.143290E-01
   3.548134E-01   3.872676E+02   7.319300E+02   6.178273E-01
   3.981072E-01   3.680964E+02   6.845261E+02   6.184709E-01
   4.466836E-01   3.542768E+02   6.441356E+02   6.194296E-01
   5.011872E-01   3.369417E+02   6.075094E+02   6.214052E-01
   5.623413E-01   3.184197E+02   5.718361E+02   6.220946E-01
   6.309573E-01   3.045371E+02   5.352744E+02   6.220122E-01
   7.079458E-01   2.974328E+02   5.011904E+02   6.244585E-01
   7.943282E-01   2.856183E+02   4.718315E+02   6.255246E-01
   8.912509E-01   2.684066E+02   4.467244E+02   6.220632E-01
   1.000000E+00   2.513692E+02   4.258335E+02   6.164629E-01
   1.122018E+00   2.362005E+02   4.058622E+02   6.146160E-01
   1.258925E+00   2.216438E+02   3.839889E+02   6.140100E-01
   1.412538E+00   2.102665E+02   3.602832E+02   6.125949E-01
   1.584893E+00   2.050666E+02   3.387987E+02   6.122156E-01
   1.778279E+00   1.891791E+02   3.271747E+02   6.050007E-01
   1.995262E+00   1.602941E+02   3.224055E+02   5.888808E-01
   2.238721E+00   1.274425E+02   3.221911E+02   5.645957E-01
   2.511886E+00   1.161244E+02   3.109716E+02   5.600676E-01
   2.818383E+00   1.065025E+02   2.950823E+02   5.654484E-01
   3.162278E+00   9.984995E+01   2.761525E+02   5.698955E-01
   3.548134E+00   9.337893E+01   2.555179E+02   5.718916E-01
   3.981072E+00   9.075618E+01   2.386884E+02   5.730168E-01
   4.466836E+00   8.778839E+01   2.229003E+02   5.812958E-01
   5.011872E+00   8.414952E+01   2.061699E+02   5.934306E-01
   5.623413E+00   8.176093E+01   1.881221E+02   6.086595E-01
   6.309573E+00   8.041448E+01   1.680928E+02   6.306022E-01
   7.079458E+00   7.730255E+01   1.459082E+02   6.662283E-01
   7.943282E+00   1.113738E+02   8.630937E+01   7.886598E-01
   8.912509E+00   1.964085E+02   7.713389E+01   7.324057E-01
   1.000000E+01   2.068388E+02   1.020544E+02   6.103114E-01
   1.122018E+01   1.667315E+02   1.058003E+02   5.763955E-01
   1.258925E+01   1.373880E+02   1.019665E+02   5.777485E-01
   1.412538E+01   1.160886E+02   9.429067E+01   6.081319E-01
   1.584893E+01   1.227077E+02   8.093942E+01   6.332727E-01
   1.778279E+01   1.325657E+02   7.795319E+01   6.039866E-01
   1.995262E+01   1.243729E+02   8.015477E+01   5.590320E-01
   2.238721E+01   1.115040E+02   7.843501E+01   5.388132E-01
   2.511886E+01   1.009261E+02   7.555400E+01   5.249972E-01
   2.818383E+01   9.185474E+01   7.199956E+01   5.166350E-01
   3.162278E+01   8.475915E+01   6.815943E+01   5.115911E-01
   3.548134E+01   7.779677E+01   6.513875E+01   4.986596E-01
   3.981072E+01   7.176225E+01   6.225188E+01   4.835423E-01
   4.466836E+01   6.607842E+01   5.884330E+01   4.769239E-01
   5.011872E+01   6.072139E+01   5.559669E+01   4.704698E-01
   5.623413E+01   5.597725E+01   5.250835E+01   4.641189E-01
   6.309573E+01   5.176843E+01   4.955936E+01   4.584270E-01
   7.079458E+01   4.795791E+01   4.675020E+01   4.535332E-01
   7.943282E+01   4.444295E+01   4.412272E+01   4.477520E-01
   8.912509E+01   4.120899E+01   4.167038E+01   4.419557E-01
   1.000000E+02   3.825525E+01   3.934560E+01   4.360809E-01
   1.122018E+02   3.545539E+01   3.710256E+01   4.291770E-01
   1.258925E+02   3.282670E+01   3.499347E+01   4.221243E-01
   1.412538E+02   3.054957E+01   3.303925E+01   4.162255E-01
   1.584893E+02   2.847699E+01   3.109893E+01   4.093494E-01
   1.778279E+02   2.632749E+01   2.915196E+01   4.005344E-01
   1.995262E+02   2.440783E+01   2.737685E+01   3.940007E-01
   2.238721E+02   2.290990E+01   2.576148E+01   3.887580E-01
   2.511886E+02   2.139470E+01   2.403649E+01   3.798640E-01
   2.818383E+02   1.965123E+01   2.238070E+01   3.695825E-01
   3.162278E+02   1.832003E+01   2.095045E+01   3.645443E-01
   3.548134E+02   1.735852E+01   1.953327E+01   3.589004E-01
   3.981072E+02   1.611842E+01   1.798573E+01   3.477326E-01
   4.466836E+02   1.488285E+01   1.659430E+01   3.390132E-01
   5.011872E+02   1.404960E+01   1.542209E+01   3.332596E-01
   5.623413E+02   1.320329E+01   1.417489E+01   3.218449E-01
   6.309573E+02   1.209014E+01   1.294103E+01   3.071120E-01
   7.079458E+02   1.122606E+01   1.195304E+01   2.969507E-01
   7.943282E+02   1.057653E+01   1.098418E+01   2.841922E-01
   8.912509E+02   9.634102E+00   9.942498E+00   2.641562E-01
   1.000000E+03   8.742003E+00   9.083392E+00   2.466610E-01
   1.122018E+03   8.188288E+00   8.364058E+00   2.331683E-01
   1.258925E+03   7.446868E+00   7.484007E+00   2.062098E-01
   1.412538E+03   6.558228E+00   6.674666E+00   1.791011E-01
   1.584893E+03   6.015407E+00   6.164168E+00   1.638520E-01
   1.778279E+03   5.454222E+00   5.592535E+00   1.367670E-01
   1.995262E+03   4.552061E+00   4.814768E+00   9.477349E-02
   2.238721E+03   3.884933E+00   4.251157E+00   7.803199E-02
   2.511886E+03   3.609496E+00   3.946756E+00   4.728420E-02
   2.818383E+03   2.905371E+00   3.428960E+00   9.024934E-04
   3.162278E+03   2.195620E+00   2.838565E+00  -7.429822E-03
   3.548134E+03   1.550666E+00   2.923236E+00   1.183159E-02
   3.981072E+03   1.513445E+00   2.415651E+00   3.829134E-02
   4.466836E+03   8.810576E-01   1.568126E+00  -6.332502E-03
   5.011872E+03   2.989973E-01   5.382178E-01   4.108593E-01
   5.623413E+03   8.871133E-02   2.141015E-01   2.980895E-01
   6.309573E+03   4.711220E-02   1.184132E-01   2.038415E-01
   7.079458E+03   2.982248E-02   6.985726E-02   1.460547E-01
   7.943282E+03   2.041136E-02   4.221981E-02   1.081134E-01
   8.912509E+03   1.460211E-02   2.584322E-02   8.171615E-02
   1.000000E+04   1.076212E-02   1.594548E-02   6.262103E-02
