#============================================================================
# Opacities computed by OpTool        <a^n>=  1.6577E-2  2.2191E-2  1.0326E-1
# Method:   DHS  fmax=  0.000
# Parameters:
#   amin [um]=      0.010 amax [um]=    500.000  na  =   71     apow=   3.5    
#   lmin [um]=      0.100 lmax [um]=  10000.000  nlam=  101     nang=   180
#   porosity =      0.000 p_mantle =      0.000  fmax=  0.0     chop=   0.0
# Composition:
#  Where   mfrac  rho   Material
#  -----   -----  ----  -----------------------------------------------------
#  core    1.000  3.30  astrosil
#  - - -   - - -  -  -  - - - - - - - - - - - - - - - - - - - - - - - - - - -
#  grain   1.000  3.30  mixture of  1 materials
#----------------------------------------------------------------------------
# Command: /home/hyp0515/bin/optool -c astrosil 0.3291 -a 0.01 500.0 3.5 \
#   -l 0.1 10000 101 -mie -radmc -o ./opacity_table/
#============================================================================
# Output file formatted for RADMC-3D, dustkappa, no scattering matrix
#    iformat
#    nlambda
#    lambda[um]  kabs [cm^2/g]  ksca [cm^2/g]    g_asymmetry
#============================================================================
           3
         101
   1.000000E-01   1.333772E+03   9.995392E+02   6.725399E-01
   1.122018E-01   1.254964E+03   9.636366E+02   6.758004E-01
   1.258925E-01   1.172088E+03   9.322594E+02   6.764272E-01
   1.412538E-01   1.083592E+03   9.259412E+02   6.672455E-01
   1.584893E-01   8.797594E+02   9.794923E+02   6.538213E-01
   1.778279E-01   6.189049E+02   1.045335E+03   6.335737E-01
   1.995262E-01   4.103363E+02   1.086317E+03   6.157085E-01
   2.238721E-01   3.036134E+02   1.059085E+03   6.176842E-01
   2.511886E-01   2.864777E+02   9.679751E+02   6.337048E-01
   2.818383E-01   2.742028E+02   8.933696E+02   6.425344E-01
   3.162278E-01   2.624163E+02   8.382626E+02   6.493207E-01
   3.548134E-01   2.474242E+02   7.859393E+02   6.562590E-01
   3.981072E-01   2.304868E+02   7.345010E+02   6.590356E-01
   4.466836E-01   2.182980E+02   6.845661E+02   6.599274E-01
   5.011872E-01   2.097291E+02   6.458339E+02   6.601068E-01
   5.623413E-01   1.985838E+02   6.123024E+02   6.637346E-01
   6.309573E-01   1.846696E+02   5.751712E+02   6.650589E-01
   7.079458E-01   1.749701E+02   5.378289E+02   6.638843E-01
   7.943282E-01   1.682715E+02   5.079627E+02   6.628419E-01
   8.912509E-01   1.594533E+02   4.823777E+02   6.655261E-01
   1.000000E+00   1.484445E+02   4.535309E+02   6.659566E-01
   1.122018E+00   1.407694E+02   4.241844E+02   6.643589E-01
   1.258925E+00   1.354348E+02   4.011024E+02   6.634729E-01
   1.412538E+00   1.286454E+02   3.799846E+02   6.665297E-01
   1.584893E+00   1.204587E+02   3.565160E+02   6.669888E-01
   1.778279E+00   1.147547E+02   3.327273E+02   6.661325E-01
   1.995262E+00   1.111401E+02   3.136851E+02   6.666087E-01
   2.238721E+00   1.060394E+02   2.958491E+02   6.706854E-01
   2.511886E+00   1.000671E+02   2.763526E+02   6.726532E-01
   2.818383E+00   9.605044E+01   2.566777E+02   6.738168E-01
   3.162278E+00   9.343456E+01   2.399230E+02   6.766690E-01
   3.548134E+00   8.989626E+01   2.245477E+02   6.830288E-01
   3.981072E+00   8.512162E+01   2.081954E+02   6.891526E-01
   4.466836E+00   8.103188E+01   1.918701E+02   6.949353E-01
   5.011872E+00   7.774434E+01   1.753043E+02   7.046217E-01
   5.623413E+00   7.590199E+01   1.578513E+02   7.218777E-01
   6.309573E+00   7.484357E+01   1.377207E+02   7.489085E-01
   7.079458E+00   7.104615E+01   1.126497E+02   7.933332E-01
   7.943282E+00   1.044363E+02   5.301775E+01   8.922094E-01
   8.912509E+00   1.966109E+02   6.629885E+01   7.796177E-01
   1.000000E+01   2.408834E+02   9.300820E+01   6.586622E-01
   1.122018E+01   1.979532E+02   9.897263E+01   6.250940E-01
   1.258925E+01   1.570571E+02   9.574277E+01   6.308813E-01
   1.412538E+01   1.265321E+02   8.614229E+01   6.714636E-01
   1.584893E+01   1.356963E+02   7.126018E+01   6.986768E-01
   1.778279E+01   1.533964E+02   7.069802E+01   6.587870E-01
   1.995262E+01   1.487769E+02   7.599136E+01   6.042804E-01
   2.238721E+01   1.328627E+02   7.581744E+01   5.809464E-01
   2.511886E+01   1.193637E+02   7.386471E+01   5.657911E-01
   2.818383E+01   1.075441E+02   7.117809E+01   5.546884E-01
   3.162278E+01   9.741251E+01   6.827079E+01   5.448572E-01
   3.548134E+01   8.873566E+01   6.514856E+01   5.368932E-01
   3.981072E+01   8.109927E+01   6.207527E+01   5.289600E-01
   4.466836E+01   7.412437E+01   5.908345E+01   5.211639E-01
   5.011872E+01   6.784738E+01   5.611581E+01   5.143728E-01
   5.623413E+01   6.220446E+01   5.322376E+01   5.082891E-01
   6.309573E+01   5.709911E+01   5.044313E+01   5.025826E-01
   7.079458E+01   5.246118E+01   4.779414E+01   4.969992E-01
   7.943282E+01   4.823409E+01   4.529442E+01   4.914562E-01
   8.912509E+01   4.434691E+01   4.294975E+01   4.854223E-01
   1.000000E+02   4.073827E+01   4.073538E+01   4.786199E-01
   1.122018E+02   3.738596E+01   3.867047E+01   4.713442E-01
   1.258925E+02   3.429143E+01   3.678048E+01   4.636508E-01
   1.412538E+02   3.141535E+01   3.498603E+01   4.546901E-01
   1.584893E+02   2.865588E+01   3.323176E+01   4.439108E-01
   1.778279E+02   2.603300E+01   3.163288E+01   4.333109E-01
   1.995262E+02   2.368883E+01   3.027143E+01   4.241918E-01
   2.238721E+02   2.159727E+01   2.889649E+01   4.117038E-01
   2.511886E+02   1.938617E+01   2.737436E+01   3.945580E-01
   2.818383E+02   1.699073E+01   2.621631E+01   3.793147E-01
   3.162278E+02   1.506905E+01   2.552398E+01   3.717894E-01
   3.548134E+02   1.360220E+01   2.461272E+01   3.543306E-01
   3.981072E+02   1.186077E+01   2.302181E+01   3.311699E-01
   4.466836E+02   1.009514E+01   2.164474E+01   3.177450E-01
   5.011872E+02   8.801395E+00   2.113072E+01   3.200875E-01
   5.623413E+02   8.138683E+00   2.028088E+01   3.011458E-01
   6.309573E+02   7.040322E+00   1.849973E+01   2.785519E-01
   7.079458E+02   5.871175E+00   1.689463E+01   2.645896E-01
   7.943282E+02   5.046416E+00   1.648481E+01   2.718291E-01
   8.912509E+02   4.821235E+00   1.581106E+01   2.588454E-01
   1.000000E+03   4.054785E+00   1.367407E+01   2.144825E-01
   1.122018E+03   3.200213E+00   1.235834E+01   2.141150E-01
   1.258925E+03   2.734023E+00   1.216536E+01   2.381962E-01
   1.412538E+03   2.559600E+00   1.157394E+01   2.164403E-01
   1.584893E+03   2.115122E+00   9.449191E+00   1.399635E-01
   1.778279E+03   1.618470E+00   8.127204E+00   1.734102E-01
   1.995262E+03   1.407666E+00   8.131448E+00   1.808485E-01
   2.238721E+03   1.055737E+00   7.523837E+00   1.543479E-01
   2.511886E+03   9.851605E-01   6.463087E+00   1.101864E-01
   2.818383E+03   4.802104E-01   5.049716E+00   1.292801E-01
   3.162278E+03   4.750903E-01   4.163607E+00   2.042580E-01
   3.548134E+03   4.155259E-01   3.336998E+00   2.138840E-01
   3.981072E+03   1.294019E-01   1.021012E+00   3.982442E-01
   4.466836E+03   6.125986E-02   4.806955E-01   2.723457E-01
   5.011872E+03   4.041709E-02   2.711121E-01   1.913031E-01
   5.623413E+03   2.958293E-02   1.597983E-01   1.404422E-01
   6.309573E+03   2.267231E-02   9.607730E-02   1.059184E-01
   7.079458E+03   1.781726E-02   5.847068E-02   8.120375E-02
   7.943282E+03   1.422064E-02   3.588707E-02   6.291390E-02
   8.912509E+03   1.146842E-02   2.216445E-02   4.908574E-02
   1.000000E+04   9.283697E-03   1.375486E-02   3.848437E-02
