1
0
150
0
1 1 1
200 200 20
7.3477917213443e+11
7.6073292690947e+11
7.8760341614362e+11
8.1542302058777e+11
8.4422526474065e+11
8.7404485724806e+11
9.0491773272915e+11
9.3688109508008e+11
9.6997346230717e+11
1.0042347129437e+12
1.0397061341064e+12
1.0764304712488e+12
1.1144519796730e+12
1.1538164778595e+12
1.1945714026824e+12
1.2367658665734e+12
1.2804507167060e+12
1.3256785962693e+12
1.3725040079071e+12
1.4209833793971e+12
1.4711751316499e+12
1.5231397491105e+12
1.5769398526460e+12
1.6326402750078e+12
1.6903081389598e+12
1.7500129381656e+12
1.8118266209328e+12
1.8758236769163e+12
1.9420812268827e+12
2.0106791156461e+12
2.0817000082868e+12
2.1552294897680e+12
2.2313561680718e+12
2.3101717809773e+12
2.3917713066110e+12
2.4762530779022e+12
2.5637189010802e+12
2.6542741783583e+12
2.7480280349500e+12
2.8450934505726e+12
2.9455873955953e+12
3.0496309719962e+12
3.1573495592986e+12
3.2688729656618e+12
3.3843355843083e+12
3.5038765554772e+12
3.6276399340971e+12
3.7557748633823e+12
3.8884357545605e+12
4.0257824729484e+12
4.1679805306003e+12
4.3152012857615e+12
4.4676221493664e+12
4.6254267988306e+12
4.7888053993944e+12
4.9579548332852e+12
5.1330789369735e+12
5.3143887468096e+12
5.5021027533366e+12
5.6964471645866e+12
5.8976561786761e+12
6.1059722660310e+12
6.3216464615794e+12
6.5449386672659e+12
6.7761179652508e+12
7.0154629421723e+12
7.2632620248622e+12
7.5198138279198e+12
7.7854275135621e+12
8.0604231641859e+12
8.3451321680880e+12
8.6398976188108e+12
8.9450747285930e+12
9.2610312564243e+12
9.5881479512200e+12
9.9268190106486e+12
1.0277452556167e+13
1.0640471124835e+13
1.1016312178498e+13
1.1405428630963e+13
1.1808289393786e+13
1.2225379941343e+13
1.2657202895861e+13
1.3104278633110e+13
1.3567145909491e+13
1.4046362511276e+13
1.4542505926773e+13
1.5056174042245e+13
1.5587985862397e+13
1.6138582256324e+13
1.6708626729796e+13
1.7298806224832e+13
1.7909831947507e+13
1.8542440225009e+13
1.9197393392955e+13
1.9875480714067e+13
2.0577519329275e+13
2.1304355242437e+13
2.2056864339825e+13
2.2835953445630e+13
2.3642561414744e+13
2.4477660264144e+13
2.5342256344238e+13
2.6237391551588e+13
2.7164144584460e+13
2.8123632242733e+13
2.9117010773716e+13
3.0145477265503e+13
3.1210271089548e+13
3.2312675394188e+13
3.3454018650925e+13
3.4635676255323e+13
3.5859072184453e+13
3.7125680712880e+13
3.8437028189265e+13
3.9794694875718e+13
4.1200316852116e+13
4.2655587987698e+13
4.4162261982284e+13
4.5722154479605e+13
4.7337145255273e+13
4.9009180482044e+13
5.0740275075080e+13
5.2532515120060e+13
5.4388060387058e+13
5.6309146933205e+13
5.8298089797292e+13
6.0357285789548e+13
6.2489216379958e+13
6.4696450688600e+13
6.6981648581608e+13
6.9347563876493e+13
7.1797047660674e+13
7.4333051727236e+13
7.6958632132033e+13
7.9676952876450e+13
8.2491289720227e+13
8.5405034128982e+13
8.8421697361147e+13
9.1544914699274e+13
9.4778449830796e+13
9.8126199383525e+13
1.0159219762135e+14
1.0518062130579e+14
1.0889579472930e+14
1.1274219492628e+14
1.1672445706828e+14
1.2084738004961e+14
1.2511593227042e+14
1.2953525762386e+14
1.3411068169492e+14
1.3884771817802e+14
1.4375207552146e+14
1.4882966380646e+14
1.5408660186918e+14
1.5952922467436e+14
1.6516409094939e+14
1.7099799108797e+14
1.7703795533305e+14
1.8329126224871e+14
1.8976544749133e+14
1.9646831289054e+14
2.0340793585103e+14
2.1059267908625e+14
2.1803120069615e+14
2.2573246460070e+14
2.3370575134207e+14
2.4196066926827e+14
2.5050716611188e+14
2.5935554097773e+14
2.6851645675400e+14
2.7800095296177e+14
2.8782045905834e+14
2.9798680821048e+14
3.0851225155426e+14
3.1940947295846e+14
3.3069160430944e+14
3.4237224133605e+14
3.5446545999331e+14
3.6698583342492e+14
3.7994844952488e+14
3.9336892911943e+14
4.0726344479117e+14
4.2164874036813e+14
4.3654215110123e+14
4.5196162455438e+14
4.6792574223254e+14
4.8445374197369e+14
5.0156554113168e+14
5.1928176057803e+14
5.3762374955147e+14
5.5661361138515e+14
5.7627423014273e+14
5.9662929819516e+14
6.1770334477161e+14
6.3952176551884e+14
6.6211085310466e+14
6.8549782890238e+14
7.0971087579439e+14
7.3522986093146e+14
7.6074884606854e+14
1.0672358284879e+00
1.0733231736627e+00
1.0793869739349e+00
1.0854273203724e+00
1.0914443036911e+00
1.0974380142557e+00
1.1034085420818e+00
1.1093559768365e+00
1.1152804078403e+00
1.1211819240680e+00
1.1270606141505e+00
1.1329165663757e+00
1.1387498686901e+00
1.1445606087000e+00
1.1503488736730e+00
1.1561147505389e+00
1.1618583258914e+00
1.1675796859894e+00
1.1732789167580e+00
1.1789561037900e+00
1.1846113323471e+00
1.1902446873613e+00
1.1958562534360e+00
1.2014461148474e+00
1.2070143555459e+00
1.2125610591570e+00
1.2180863089827e+00
1.2235901880030e+00
1.2290727788767e+00
1.2345341639433e+00
1.2399744252233e+00
1.2453936444203e+00
1.2507919029219e+00
1.2561692818007e+00
1.2615258618158e+00
1.2668617234140e+00
1.2721769467309e+00
1.2774716115923e+00
1.2827457975149e+00
1.2879995837081e+00
1.2932330490749e+00
1.2984462722131e+00
1.3036393314164e+00
1.3088123046760e+00
1.3139652696809e+00
1.3190983038201e+00
1.3242114841830e+00
1.3293048875609e+00
1.3343785904482e+00
1.3394326690432e+00
1.3444671992498e+00
1.3494822566779e+00
1.3544779166452e+00
1.3594542541782e+00
1.3644113440130e+00
1.3693492605966e+00
1.3742680780883e+00
1.3791678703603e+00
1.3840487109993e+00
1.3889106733071e+00
1.3937538303023e+00
1.3985782547209e+00
1.4033840190174e+00
1.4081711953665e+00
1.4129398556633e+00
1.4176900715251e+00
1.4224219142921e+00
1.4271354550286e+00
1.4318307645238e+00
1.4365079132936e+00
1.4411669715806e+00
1.4458080093561e+00
1.4504310963206e+00
1.4550363019050e+00
1.4596236952718e+00
1.4641933453158e+00
1.4687453206655e+00
1.4732796896837e+00
1.4777965204690e+00
1.4822958808567e+00
1.4867778384194e+00
1.4912424604686e+00
1.4956898140553e+00
1.5001199659713e+00
1.5045329827500e+00
1.5089289306673e+00
1.5133078757430e+00
1.5176698837415e+00
1.5220150201727e+00
1.5263433502931e+00
1.5306549391071e+00
1.5349498513673e+00
1.5392281515761e+00
1.5434899039863e+00
1.5477351726021e+00
1.5519640211805e+00
1.5561765132314e+00
1.5603727120194e+00
1.5645526805643e+00
1.5687084447180e+00
1.5707963267949e+00
1.5728861407414e+00
1.5770499416981e+00
1.5812299101213e+00
1.5854261087872e+00
1.5896386007156e+00
1.5938674491708e+00
1.5981127176632e+00
1.6023744699493e+00
1.6066527700336e+00
1.6109476821688e+00
1.6152592708573e+00
1.6195876008518e+00
1.6239327371565e+00
1.6282947450280e+00
1.6326736899763e+00
1.6370696377658e+00
1.6414826544160e+00
1.6459128062031e+00
1.6503601596604e+00
1.6548247815797e+00
1.6593067390119e+00
1.6638060992687e+00
1.6683229299226e+00
1.6728572988088e+00
1.6774092740260e+00
1.6819789239370e+00
1.6865663171703e+00
1.6911715226207e+00
1.6957946094507e+00
1.7004356470912e+00
1.7050947052426e+00
1.7097718538762e+00
1.7144671632349e+00
1.7191807038341e+00
1.7239125464634e+00
1.7286627621870e+00
1.7334314223450e+00
1.7382185985548e+00
1.7430243627115e+00
1.7478487869897e+00
1.7526919438439e+00
1.7575539060103e+00
1.7624347465072e+00
1.7673345386366e+00
1.7722533559852e+00
1.7771912724251e+00
1.7821483621156e+00
1.7871246995038e+00
1.7921203593258e+00
1.7971354166080e+00
1.8021699466680e+00
1.8072240251159e+00
1.8122977278556e+00
1.8173911310853e+00
1.8225043112994e+00
1.8276373452892e+00
1.8327903101442e+00
1.8379632832531e+00
1.8431563423054e+00
1.8483695652919e+00
1.8536030305064e+00
1.8588568165467e+00
1.8641310023158e+00
1.8694256670231e+00
1.8747408901853e+00
1.8800767516283e+00
1.8854333314875e+00
1.8908107102098e+00
1.8962089685543e+00
1.9016281875936e+00
1.9070684487153e+00
1.9125298336229e+00
1.9180124243371e+00
1.9235163031972e+00
1.9290415528622e+00
1.9345882563118e+00
1.9401564968483e+00
1.9457463580971e+00
1.9513579240085e+00
1.9569912788587e+00
1.9626465072512e+00
1.9683236941180e+00
1.9740229247207e+00
1.9797442846522e+00
1.9854878598376e+00
1.9912537365357e+00
1.9970420013402e+00
2.0028527411811e+00
2.0086860433257e+00
2.0145419953805e+00
2.0204206852919e+00
2.0263222013479e+00
2.0322466321792e+00
2.0381940667609e+00
2.0441645944132e+00
2.0501583048035e+00
2.0561752879471e+00
2.0622156342088e+00
2.0682912296554e+00
2.0743668251019e+00
0.0000000000000e+00
3.1415926535898e-01
6.2831853071796e-01
9.4247779607694e-01
1.2566370614359e+00
1.5707963267949e+00
1.8849555921539e+00
2.1991148575129e+00
2.5132741228718e+00
2.8274333882308e+00
3.1415926535898e+00
3.4557519189488e+00
3.7699111843078e+00
4.0840704496667e+00
4.3982297150257e+00
4.7123889803847e+00
5.0265482457437e+00
5.3407075111026e+00
5.6548667764616e+00
5.9690260418206e+00
6.2831853071796e+00
