1
101
90

 5.000000e-01
 5.610092e-01
 6.294627e-01
 7.062688e-01
 7.924466e-01
 8.891397e-01
 9.976312e-01
 1.119361e+00
 1.255943e+00
 1.409191e+00
 1.581139e+00
 1.774067e+00
 1.990536e+00
 2.233418e+00
 2.505936e+00
 2.811707e+00
 3.154787e+00
 3.539729e+00
 3.971641e+00
 4.456255e+00
 5.000000e+00
 5.610092e+00
 6.294627e+00
 7.062688e+00
 7.924466e+00
 8.891397e+00
 9.976312e+00
 1.119361e+01
 1.255943e+01
 1.409191e+01
 1.581139e+01
 1.774067e+01
 1.990536e+01
 2.233418e+01
 2.505936e+01
 2.811707e+01
 3.154787e+01
 3.539729e+01
 3.971641e+01
 4.456255e+01
 5.000000e+01
 5.610092e+01
 6.294627e+01
 7.062688e+01
 7.924466e+01
 8.891397e+01
 9.976312e+01
 1.119361e+02
 1.255943e+02
 1.409191e+02
 1.581139e+02
 1.774067e+02
 1.990536e+02
 2.233418e+02
 2.505936e+02
 2.811707e+02
 3.154787e+02
 3.539729e+02
 3.971641e+02
 4.456255e+02
 5.000000e+02
 5.610092e+02
 6.294627e+02
 7.062688e+02
 7.924466e+02
 8.891397e+02
 9.976312e+02
 1.119361e+03
 1.255943e+03
 1.409191e+03
 1.581139e+03
 1.774067e+03
 1.990536e+03
 2.233418e+03
 2.505936e+03
 2.811707e+03
 3.154787e+03
 3.539729e+03
 3.971641e+03
 4.456255e+03
 5.000000e+03
 5.610092e+03
 6.294627e+03
 7.062688e+03
 7.924466e+03
 8.891397e+03
 9.976312e+03
 1.119361e+04
 1.255943e+04
 1.409191e+04
 1.581139e+04
 1.774067e+04
 1.990536e+04
 2.233418e+04
 2.505936e+04
 2.811707e+04
 3.154787e+04
 3.539729e+04
 3.971641e+04
 4.456255e+04
 5.000000e+04

 0.000000e+00
 1.011236e+00
 2.022472e+00
 3.033708e+00
 4.044944e+00
 5.056180e+00
 6.067416e+00
 7.078652e+00
 8.089888e+00
 9.101124e+00
 1.011236e+01
 1.112360e+01
 1.213483e+01
 1.314607e+01
 1.415730e+01
 1.516854e+01
 1.617978e+01
 1.719101e+01
 1.820225e+01
 1.921348e+01
 2.022472e+01
 2.123596e+01
 2.224719e+01
 2.325843e+01
 2.426966e+01
 2.528090e+01
 2.629213e+01
 2.730337e+01
 2.831461e+01
 2.932584e+01
 3.033708e+01
 3.134831e+01
 3.235955e+01
 3.337079e+01
 3.438202e+01
 3.539326e+01
 3.640449e+01
 3.741573e+01
 3.842697e+01
 3.943820e+01
 4.044944e+01
 4.146067e+01
 4.247191e+01
 4.348315e+01
 4.449438e+01
 4.550562e+01
 4.651685e+01
 4.752809e+01
 4.853933e+01
 4.955056e+01
 5.056180e+01
 5.157303e+01
 5.258427e+01
 5.359551e+01
 5.460674e+01
 5.561798e+01
 5.662921e+01
 5.764045e+01
 5.865169e+01
 5.966292e+01
 6.067416e+01
 6.168539e+01
 6.269663e+01
 6.370787e+01
 6.471910e+01
 6.573034e+01
 6.674157e+01
 6.775281e+01
 6.876404e+01
 6.977528e+01
 7.078652e+01
 7.179775e+01
 7.280899e+01
 7.382022e+01
 7.483146e+01
 7.584270e+01
 7.685393e+01
 7.786517e+01
 7.887640e+01
 7.988764e+01
 8.089888e+01
 8.191011e+01
 8.292135e+01
 8.393258e+01
 8.494382e+01
 8.595506e+01
 8.696629e+01
 8.797753e+01
 8.898876e+01
 9.000000e+01

 1.000000e+00  1.000000e+00
 1.000000e+00  9.823515e-01
 1.000000e+00  9.647085e-01
 1.000000e+00  9.470765e-01
 1.000000e+00  9.294610e-01
 1.000000e+00  9.118675e-01
 1.000000e+00  8.943014e-01
 1.000000e+00  8.767683e-01
 1.000000e+00  8.592735e-01
 1.000000e+00  8.418226e-01
 1.000000e+00  8.244209e-01
 1.000000e+00  8.070739e-01
 1.000000e+00  7.897871e-01
 1.000000e+00  7.725657e-01
 1.000000e+00  7.554151e-01
 1.000000e+00  7.383407e-01
 1.000000e+00  7.213479e-01
 1.000000e+00  7.044418e-01
 1.000000e+00  6.876278e-01
 1.000000e+00  6.709111e-01
 1.000000e+00  6.542969e-01
 1.000000e+00  6.377904e-01
 1.000000e+00  6.213968e-01
 1.000000e+00  6.051210e-01
 1.000000e+00  5.889683e-01
 1.000000e+00  5.729436e-01
 1.000000e+00  5.570519e-01
 1.000000e+00  5.412982e-01
 1.000000e+00  5.256873e-01
 1.000000e+00  5.102243e-01
 1.000000e+00  4.949137e-01
 1.000000e+00  4.797606e-01
 1.000000e+00  4.647694e-01
 1.000000e+00  4.499450e-01
 1.000000e+00  4.352919e-01
 1.000000e+00  4.208147e-01
 1.000000e+00  4.065180e-01
 1.000000e+00  3.924061e-01
 1.000000e+00  3.784834e-01
 1.000000e+00  3.647544e-01
 1.000000e+00  3.512232e-01
 1.000000e+00  3.378942e-01
 1.000000e+00  3.247713e-01
 1.000000e+00  3.118588e-01
 1.000000e+00  2.991607e-01
 1.000000e+00  2.866808e-01
 1.000000e+00  2.744232e-01
 1.000000e+00  2.623915e-01
 1.000000e+00  2.505897e-01
 1.000000e+00  2.390212e-01
 1.000000e+00  2.276898e-01
 1.000000e+00  2.165990e-01
 1.000000e+00  2.057522e-01
 1.000000e+00  1.951528e-01
 1.000000e+00  1.848041e-01
 1.000000e+00  1.747093e-01
 1.000000e+00  1.648716e-01
 1.000000e+00  1.552940e-01
 1.000000e+00  1.459796e-01
 1.000000e+00  1.369311e-01
 1.000000e+00  1.281515e-01
 1.000000e+00  1.196435e-01
 1.000000e+00  1.114098e-01
 1.000000e+00  1.034528e-01
 1.000000e+00  9.577503e-02
 1.000000e+00  8.837896e-02
 1.000000e+00  8.126686e-02
 1.000000e+00  7.444093e-02
 1.000000e+00  6.790331e-02
 1.000000e+00  6.165604e-02
 1.000000e+00  5.570105e-02
 1.000000e+00  5.004020e-02
 1.000000e+00  4.467526e-02
 1.000000e+00  3.960789e-02
 1.000000e+00  3.483968e-02
 1.000000e+00  3.037212e-02
 1.000000e+00  2.620658e-02
 1.000000e+00  2.234438e-02
 1.000000e+00  1.878670e-02
 1.000000e+00  1.553467e-02
 1.000000e+00  1.258929e-02
 1.000000e+00  9.951489e-03
 1.000000e+00  7.622077e-03
 1.000000e+00  5.601784e-03
 1.000000e+00  3.891239e-03
 1.000000e+00  2.490975e-03
 1.000000e+00  1.401428e-03
 1.000000e+00  6.229377e-04
 1.000000e+00  1.557466e-04
 1.000000e+00  0.000000e+00

 1.000000e+00  1.000000e+00
 1.000000e+00  9.823515e-01
 1.000000e+00  9.647085e-01
 1.000000e+00  9.470765e-01
 1.000000e+00  9.294610e-01
 1.000000e+00  9.118675e-01
 1.000000e+00  8.943014e-01
 1.000000e+00  8.767683e-01
 1.000000e+00  8.592735e-01
 1.000000e+00  8.418226e-01
 1.000000e+00  8.244209e-01
 1.000000e+00  8.070739e-01
 1.000000e+00  7.897871e-01
 1.000000e+00  7.725657e-01
 1.000000e+00  7.554151e-01
 1.000000e+00  7.383407e-01
 1.000000e+00  7.213479e-01
 1.000000e+00  7.044418e-01
 1.000000e+00  6.876278e-01
 1.000000e+00  6.709111e-01
 1.000000e+00  6.542969e-01
 1.000000e+00  6.377904e-01
 1.000000e+00  6.213968e-01
 1.000000e+00  6.051210e-01
 1.000000e+00  5.889683e-01
 1.000000e+00  5.729436e-01
 1.000000e+00  5.570519e-01
 1.000000e+00  5.412982e-01
 1.000000e+00  5.256873e-01
 1.000000e+00  5.102243e-01
 1.000000e+00  4.949137e-01
 1.000000e+00  4.797606e-01
 1.000000e+00  4.647694e-01
 1.000000e+00  4.499450e-01
 1.000000e+00  4.352919e-01
 1.000000e+00  4.208147e-01
 1.000000e+00  4.065180e-01
 1.000000e+00  3.924061e-01
 1.000000e+00  3.784834e-01
 1.000000e+00  3.647544e-01
 1.000000e+00  3.512232e-01
 1.000000e+00  3.378942e-01
 1.000000e+00  3.247713e-01
 1.000000e+00  3.118588e-01
 1.000000e+00  2.991607e-01
 1.000000e+00  2.866808e-01
 1.000000e+00  2.744232e-01
 1.000000e+00  2.623915e-01
 1.000000e+00  2.505897e-01
 1.000000e+00  2.390212e-01
 1.000000e+00  2.276898e-01
 1.000000e+00  2.165990e-01
 1.000000e+00  2.057522e-01
 1.000000e+00  1.951528e-01
 1.000000e+00  1.848041e-01
 1.000000e+00  1.747093e-01
 1.000000e+00  1.648716e-01
 1.000000e+00  1.552940e-01
 1.000000e+00  1.459796e-01
 1.000000e+00  1.369311e-01
 1.000000e+00  1.281515e-01
 1.000000e+00  1.196435e-01
 1.000000e+00  1.114098e-01
 1.000000e+00  1.034528e-01
 1.000000e+00  9.577503e-02
 1.000000e+00  8.837896e-02
 1.000000e+00  8.126686e-02
 1.000000e+00  7.444093e-02
 1.000000e+00  6.790331e-02
 1.000000e+00  6.165604e-02
 1.000000e+00  5.570105e-02
 1.000000e+00  5.004020e-02
 1.000000e+00  4.467526e-02
 1.000000e+00  3.960789e-02
 1.000000e+00  3.483968e-02
 1.000000e+00  3.037212e-02
 1.000000e+00  2.620658e-02
 1.000000e+00  2.234438e-02
 1.000000e+00  1.878670e-02
 1.000000e+00  1.553467e-02
 1.000000e+00  1.258929e-02
 1.000000e+00  9.951489e-03
 1.000000e+00  7.622077e-03
 1.000000e+00  5.601784e-03
 1.000000e+00  3.891239e-03
 1.000000e+00  2.490975e-03
 1.000000e+00  1.401428e-03
 1.000000e+00  6.229377e-04
 1.000000e+00  1.557466e-04
 1.000000e+00  0.000000e+00

 1.000000e+00  1.000000e+00
 1.000000e+00  9.823515e-01
 1.000000e+00  9.647085e-01
 1.000000e+00  9.470765e-01
 1.000000e+00  9.294610e-01
 1.000000e+00  9.118675e-01
 1.000000e+00  8.943014e-01
 1.000000e+00  8.767683e-01
 1.000000e+00  8.592735e-01
 1.000000e+00  8.418226e-01
 1.000000e+00  8.244209e-01
 1.000000e+00  8.070739e-01
 1.000000e+00  7.897871e-01
 1.000000e+00  7.725657e-01
 1.000000e+00  7.554151e-01
 1.000000e+00  7.383407e-01
 1.000000e+00  7.213479e-01
 1.000000e+00  7.044418e-01
 1.000000e+00  6.876278e-01
 1.000000e+00  6.709111e-01
 1.000000e+00  6.542969e-01
 1.000000e+00  6.377904e-01
 1.000000e+00  6.213968e-01
 1.000000e+00  6.051210e-01
 1.000000e+00  5.889683e-01
 1.000000e+00  5.729436e-01
 1.000000e+00  5.570519e-01
 1.000000e+00  5.412982e-01
 1.000000e+00  5.256873e-01
 1.000000e+00  5.102243e-01
 1.000000e+00  4.949137e-01
 1.000000e+00  4.797606e-01
 1.000000e+00  4.647694e-01
 1.000000e+00  4.499450e-01
 1.000000e+00  4.352919e-01
 1.000000e+00  4.208147e-01
 1.000000e+00  4.065180e-01
 1.000000e+00  3.924061e-01
 1.000000e+00  3.784834e-01
 1.000000e+00  3.647544e-01
 1.000000e+00  3.512232e-01
 1.000000e+00  3.378942e-01
 1.000000e+00  3.247713e-01
 1.000000e+00  3.118588e-01
 1.000000e+00  2.991607e-01
 1.000000e+00  2.866808e-01
 1.000000e+00  2.744232e-01
 1.000000e+00  2.623915e-01
 1.000000e+00  2.505897e-01
 1.000000e+00  2.390212e-01
 1.000000e+00  2.276898e-01
 1.000000e+00  2.165990e-01
 1.000000e+00  2.057522e-01
 1.000000e+00  1.951528e-01
 1.000000e+00  1.848041e-01
 1.000000e+00  1.747093e-01
 1.000000e+00  1.648716e-01
 1.000000e+00  1.552940e-01
 1.000000e+00  1.459796e-01
 1.000000e+00  1.369311e-01
 1.000000e+00  1.281515e-01
 1.000000e+00  1.196435e-01
 1.000000e+00  1.114098e-01
 1.000000e+00  1.034528e-01
 1.000000e+00  9.577503e-02
 1.000000e+00  8.837896e-02
 1.000000e+00  8.126686e-02
 1.000000e+00  7.444093e-02
 1.000000e+00  6.790331e-02
 1.000000e+00  6.165604e-02
 1.000000e+00  5.570105e-02
 1.000000e+00  5.004020e-02
 1.000000e+00  4.467526e-02
 1.000000e+00  3.960789e-02
 1.000000e+00  3.483968e-02
 1.000000e+00  3.037212e-02
 1.000000e+00  2.620658e-02
 1.000000e+00  2.234438e-02
 1.000000e+00  1.878670e-02
 1.000000e+00  1.553467e-02
 1.000000e+00  1.258929e-02
 1.000000e+00  9.951489e-03
 1.000000e+00  7.622077e-03
 1.000000e+00  5.601784e-03
 1.000000e+00  3.891239e-03
 1.000000e+00  2.490975e-03
 1.000000e+00  1.401428e-03
 1.000000e+00  6.229377e-04
 1.000000e+00  1.557466e-04
 1.000000e+00  0.000000e+00

 1.000000e+00  1.000000e+00
 1.000000e+00  9.823515e-01
 1.000000e+00  9.647085e-01
 1.000000e+00  9.470765e-01
 1.000000e+00  9.294610e-01
 1.000000e+00  9.118675e-01
 1.000000e+00  8.943014e-01
 1.000000e+00  8.767683e-01
 1.000000e+00  8.592735e-01
 1.000000e+00  8.418226e-01
 1.000000e+00  8.244209e-01
 1.000000e+00  8.070739e-01
 1.000000e+00  7.897871e-01
 1.000000e+00  7.725657e-01
 1.000000e+00  7.554151e-01
 1.000000e+00  7.383407e-01
 1.000000e+00  7.213479e-01
 1.000000e+00  7.044418e-01
 1.000000e+00  6.876278e-01
 1.000000e+00  6.709111e-01
 1.000000e+00  6.542969e-01
 1.000000e+00  6.377904e-01
 1.000000e+00  6.213968e-01
 1.000000e+00  6.051210e-01
 1.000000e+00  5.889683e-01
 1.000000e+00  5.729436e-01
 1.000000e+00  5.570519e-01
 1.000000e+00  5.412982e-01
 1.000000e+00  5.256873e-01
 1.000000e+00  5.102243e-01
 1.000000e+00  4.949137e-01
 1.000000e+00  4.797606e-01
 1.000000e+00  4.647694e-01
 1.000000e+00  4.499450e-01
 1.000000e+00  4.352919e-01
 1.000000e+00  4.208147e-01
 1.000000e+00  4.065180e-01
 1.000000e+00  3.924061e-01
 1.000000e+00  3.784834e-01
 1.000000e+00  3.647544e-01
 1.000000e+00  3.512232e-01
 1.000000e+00  3.378942e-01
 1.000000e+00  3.247713e-01
 1.000000e+00  3.118588e-01
 1.000000e+00  2.991607e-01
 1.000000e+00  2.866808e-01
 1.000000e+00  2.744232e-01
 1.000000e+00  2.623915e-01
 1.000000e+00  2.505897e-01
 1.000000e+00  2.390212e-01
 1.000000e+00  2.276898e-01
 1.000000e+00  2.165990e-01
 1.000000e+00  2.057522e-01
 1.000000e+00  1.951528e-01
 1.000000e+00  1.848041e-01
 1.000000e+00  1.747093e-01
 1.000000e+00  1.648716e-01
 1.000000e+00  1.552940e-01
 1.000000e+00  1.459796e-01
 1.000000e+00  1.369311e-01
 1.000000e+00  1.281515e-01
 1.000000e+00  1.196435e-01
 1.000000e+00  1.114098e-01
 1.000000e+00  1.034528e-01
 1.000000e+00  9.577503e-02
 1.000000e+00  8.837896e-02
 1.000000e+00  8.126686e-02
 1.000000e+00  7.444093e-02
 1.000000e+00  6.790331e-02
 1.000000e+00  6.165604e-02
 1.000000e+00  5.570105e-02
 1.000000e+00  5.004020e-02
 1.000000e+00  4.467526e-02
 1.000000e+00  3.960789e-02
 1.000000e+00  3.483968e-02
 1.000000e+00  3.037212e-02
 1.000000e+00  2.620658e-02
 1.000000e+00  2.234438e-02
 1.000000e+00  1.878670e-02
 1.000000e+00  1.553467e-02
 1.000000e+00  1.258929e-02
 1.000000e+00  9.951489e-03
 1.000000e+00  7.622077e-03
 1.000000e+00  5.601784e-03
 1.000000e+00  3.891239e-03
 1.000000e+00  2.490975e-03
 1.000000e+00  1.401428e-03
 1.000000e+00  6.229377e-04
 1.000000e+00  1.557466e-04
 1.000000e+00  0.000000e+00

 1.000000e+00  1.000000e+00
 1.000000e+00  9.823515e-01
 1.000000e+00  9.647085e-01
 1.000000e+00  9.470765e-01
 1.000000e+00  9.294610e-01
 1.000000e+00  9.118675e-01
 1.000000e+00  8.943014e-01
 1.000000e+00  8.767683e-01
 1.000000e+00  8.592735e-01
 1.000000e+00  8.418226e-01
 1.000000e+00  8.244209e-01
 1.000000e+00  8.070739e-01
 1.000000e+00  7.897871e-01
 1.000000e+00  7.725657e-01
 1.000000e+00  7.554151e-01
 1.000000e+00  7.383407e-01
 1.000000e+00  7.213479e-01
 1.000000e+00  7.044418e-01
 1.000000e+00  6.876278e-01
 1.000000e+00  6.709111e-01
 1.000000e+00  6.542969e-01
 1.000000e+00  6.377904e-01
 1.000000e+00  6.213968e-01
 1.000000e+00  6.051210e-01
 1.000000e+00  5.889683e-01
 1.000000e+00  5.729436e-01
 1.000000e+00  5.570519e-01
 1.000000e+00  5.412982e-01
 1.000000e+00  5.256873e-01
 1.000000e+00  5.102243e-01
 1.000000e+00  4.949137e-01
 1.000000e+00  4.797606e-01
 1.000000e+00  4.647694e-01
 1.000000e+00  4.499450e-01
 1.000000e+00  4.352919e-01
 1.000000e+00  4.208147e-01
 1.000000e+00  4.065180e-01
 1.000000e+00  3.924061e-01
 1.000000e+00  3.784834e-01
 1.000000e+00  3.647544e-01
 1.000000e+00  3.512232e-01
 1.000000e+00  3.378942e-01
 1.000000e+00  3.247713e-01
 1.000000e+00  3.118588e-01
 1.000000e+00  2.991607e-01
 1.000000e+00  2.866808e-01
 1.000000e+00  2.744232e-01
 1.000000e+00  2.623915e-01
 1.000000e+00  2.505897e-01
 1.000000e+00  2.390212e-01
 1.000000e+00  2.276898e-01
 1.000000e+00  2.165990e-01
 1.000000e+00  2.057522e-01
 1.000000e+00  1.951528e-01
 1.000000e+00  1.848041e-01
 1.000000e+00  1.747093e-01
 1.000000e+00  1.648716e-01
 1.000000e+00  1.552940e-01
 1.000000e+00  1.459796e-01
 1.000000e+00  1.369311e-01
 1.000000e+00  1.281515e-01
 1.000000e+00  1.196435e-01
 1.000000e+00  1.114098e-01
 1.000000e+00  1.034528e-01
 1.000000e+00  9.577503e-02
 1.000000e+00  8.837896e-02
 1.000000e+00  8.126686e-02
 1.000000e+00  7.444093e-02
 1.000000e+00  6.790331e-02
 1.000000e+00  6.165604e-02
 1.000000e+00  5.570105e-02
 1.000000e+00  5.004020e-02
 1.000000e+00  4.467526e-02
 1.000000e+00  3.960789e-02
 1.000000e+00  3.483968e-02
 1.000000e+00  3.037212e-02
 1.000000e+00  2.620658e-02
 1.000000e+00  2.234438e-02
 1.000000e+00  1.878670e-02
 1.000000e+00  1.553467e-02
 1.000000e+00  1.258929e-02
 1.000000e+00  9.951489e-03
 1.000000e+00  7.622077e-03
 1.000000e+00  5.601784e-03
 1.000000e+00  3.891239e-03
 1.000000e+00  2.490975e-03
 1.000000e+00  1.401428e-03
 1.000000e+00  6.229377e-04
 1.000000e+00  1.557466e-04
 1.000000e+00  0.000000e+00

 1.000000e+00  1.000000e+00
 1.000000e+00  9.823515e-01
 1.000000e+00  9.647085e-01
 1.000000e+00  9.470765e-01
 1.000000e+00  9.294610e-01
 1.000000e+00  9.118675e-01
 1.000000e+00  8.943014e-01
 1.000000e+00  8.767683e-01
 1.000000e+00  8.592735e-01
 1.000000e+00  8.418226e-01
 1.000000e+00  8.244209e-01
 1.000000e+00  8.070739e-01
 1.000000e+00  7.897871e-01
 1.000000e+00  7.725657e-01
 1.000000e+00  7.554151e-01
 1.000000e+00  7.383407e-01
 1.000000e+00  7.213479e-01
 1.000000e+00  7.044418e-01
 1.000000e+00  6.876278e-01
 1.000000e+00  6.709111e-01
 1.000000e+00  6.542969e-01
 1.000000e+00  6.377904e-01
 1.000000e+00  6.213968e-01
 1.000000e+00  6.051210e-01
 1.000000e+00  5.889683e-01
 1.000000e+00  5.729436e-01
 1.000000e+00  5.570519e-01
 1.000000e+00  5.412982e-01
 1.000000e+00  5.256873e-01
 1.000000e+00  5.102243e-01
 1.000000e+00  4.949137e-01
 1.000000e+00  4.797606e-01
 1.000000e+00  4.647694e-01
 1.000000e+00  4.499450e-01
 1.000000e+00  4.352919e-01
 1.000000e+00  4.208147e-01
 1.000000e+00  4.065180e-01
 1.000000e+00  3.924061e-01
 1.000000e+00  3.784834e-01
 1.000000e+00  3.647544e-01
 1.000000e+00  3.512232e-01
 1.000000e+00  3.378942e-01
 1.000000e+00  3.247713e-01
 1.000000e+00  3.118588e-01
 1.000000e+00  2.991607e-01
 1.000000e+00  2.866808e-01
 1.000000e+00  2.744232e-01
 1.000000e+00  2.623915e-01
 1.000000e+00  2.505897e-01
 1.000000e+00  2.390212e-01
 1.000000e+00  2.276898e-01
 1.000000e+00  2.165990e-01
 1.000000e+00  2.057522e-01
 1.000000e+00  1.951528e-01
 1.000000e+00  1.848041e-01
 1.000000e+00  1.747093e-01
 1.000000e+00  1.648716e-01
 1.000000e+00  1.552940e-01
 1.000000e+00  1.459796e-01
 1.000000e+00  1.369311e-01
 1.000000e+00  1.281515e-01
 1.000000e+00  1.196435e-01
 1.000000e+00  1.114098e-01
 1.000000e+00  1.034528e-01
 1.000000e+00  9.577503e-02
 1.000000e+00  8.837896e-02
 1.000000e+00  8.126686e-02
 1.000000e+00  7.444093e-02
 1.000000e+00  6.790331e-02
 1.000000e+00  6.165604e-02
 1.000000e+00  5.570105e-02
 1.000000e+00  5.004020e-02
 1.000000e+00  4.467526e-02
 1.000000e+00  3.960789e-02
 1.000000e+00  3.483968e-02
 1.000000e+00  3.037212e-02
 1.000000e+00  2.620658e-02
 1.000000e+00  2.234438e-02
 1.000000e+00  1.878670e-02
 1.000000e+00  1.553467e-02
 1.000000e+00  1.258929e-02
 1.000000e+00  9.951489e-03
 1.000000e+00  7.622077e-03
 1.000000e+00  5.601784e-03
 1.000000e+00  3.891239e-03
 1.000000e+00  2.490975e-03
 1.000000e+00  1.401428e-03
 1.000000e+00  6.229377e-04
 1.000000e+00  1.557466e-04
 1.000000e+00  0.000000e+00

 1.000000e+00  1.000000e+00
 1.000000e+00  9.823515e-01
 1.000000e+00  9.647085e-01
 1.000000e+00  9.470765e-01
 1.000000e+00  9.294610e-01
 1.000000e+00  9.118675e-01
 1.000000e+00  8.943014e-01
 1.000000e+00  8.767683e-01
 1.000000e+00  8.592735e-01
 1.000000e+00  8.418226e-01
 1.000000e+00  8.244209e-01
 1.000000e+00  8.070739e-01
 1.000000e+00  7.897871e-01
 1.000000e+00  7.725657e-01
 1.000000e+00  7.554151e-01
 1.000000e+00  7.383407e-01
 1.000000e+00  7.213479e-01
 1.000000e+00  7.044418e-01
 1.000000e+00  6.876278e-01
 1.000000e+00  6.709111e-01
 1.000000e+00  6.542969e-01
 1.000000e+00  6.377904e-01
 1.000000e+00  6.213968e-01
 1.000000e+00  6.051210e-01
 1.000000e+00  5.889683e-01
 1.000000e+00  5.729436e-01
 1.000000e+00  5.570519e-01
 1.000000e+00  5.412982e-01
 1.000000e+00  5.256873e-01
 1.000000e+00  5.102243e-01
 1.000000e+00  4.949137e-01
 1.000000e+00  4.797606e-01
 1.000000e+00  4.647694e-01
 1.000000e+00  4.499450e-01
 1.000000e+00  4.352919e-01
 1.000000e+00  4.208147e-01
 1.000000e+00  4.065180e-01
 1.000000e+00  3.924061e-01
 1.000000e+00  3.784834e-01
 1.000000e+00  3.647544e-01
 1.000000e+00  3.512232e-01
 1.000000e+00  3.378942e-01
 1.000000e+00  3.247713e-01
 1.000000e+00  3.118588e-01
 1.000000e+00  2.991607e-01
 1.000000e+00  2.866808e-01
 1.000000e+00  2.744232e-01
 1.000000e+00  2.623915e-01
 1.000000e+00  2.505897e-01
 1.000000e+00  2.390212e-01
 1.000000e+00  2.276898e-01
 1.000000e+00  2.165990e-01
 1.000000e+00  2.057522e-01
 1.000000e+00  1.951528e-01
 1.000000e+00  1.848041e-01
 1.000000e+00  1.747093e-01
 1.000000e+00  1.648716e-01
 1.000000e+00  1.552940e-01
 1.000000e+00  1.459796e-01
 1.000000e+00  1.369311e-01
 1.000000e+00  1.281515e-01
 1.000000e+00  1.196435e-01
 1.000000e+00  1.114098e-01
 1.000000e+00  1.034528e-01
 1.000000e+00  9.577503e-02
 1.000000e+00  8.837896e-02
 1.000000e+00  8.126686e-02
 1.000000e+00  7.444093e-02
 1.000000e+00  6.790331e-02
 1.000000e+00  6.165604e-02
 1.000000e+00  5.570105e-02
 1.000000e+00  5.004020e-02
 1.000000e+00  4.467526e-02
 1.000000e+00  3.960789e-02
 1.000000e+00  3.483968e-02
 1.000000e+00  3.037212e-02
 1.000000e+00  2.620658e-02
 1.000000e+00  2.234438e-02
 1.000000e+00  1.878670e-02
 1.000000e+00  1.553467e-02
 1.000000e+00  1.258929e-02
 1.000000e+00  9.951489e-03
 1.000000e+00  7.622077e-03
 1.000000e+00  5.601784e-03
 1.000000e+00  3.891239e-03
 1.000000e+00  2.490975e-03
 1.000000e+00  1.401428e-03
 1.000000e+00  6.229377e-04
 1.000000e+00  1.557466e-04
 1.000000e+00  0.000000e+00

 1.000000e+00  1.000000e+00
 1.000000e+00  9.823515e-01
 1.000000e+00  9.647085e-01
 1.000000e+00  9.470765e-01
 1.000000e+00  9.294610e-01
 1.000000e+00  9.118675e-01
 1.000000e+00  8.943014e-01
 1.000000e+00  8.767683e-01
 1.000000e+00  8.592735e-01
 1.000000e+00  8.418226e-01
 1.000000e+00  8.244209e-01
 1.000000e+00  8.070739e-01
 1.000000e+00  7.897871e-01
 1.000000e+00  7.725657e-01
 1.000000e+00  7.554151e-01
 1.000000e+00  7.383407e-01
 1.000000e+00  7.213479e-01
 1.000000e+00  7.044418e-01
 1.000000e+00  6.876278e-01
 1.000000e+00  6.709111e-01
 1.000000e+00  6.542969e-01
 1.000000e+00  6.377904e-01
 1.000000e+00  6.213968e-01
 1.000000e+00  6.051210e-01
 1.000000e+00  5.889683e-01
 1.000000e+00  5.729436e-01
 1.000000e+00  5.570519e-01
 1.000000e+00  5.412982e-01
 1.000000e+00  5.256873e-01
 1.000000e+00  5.102243e-01
 1.000000e+00  4.949137e-01
 1.000000e+00  4.797606e-01
 1.000000e+00  4.647694e-01
 1.000000e+00  4.499450e-01
 1.000000e+00  4.352919e-01
 1.000000e+00  4.208147e-01
 1.000000e+00  4.065180e-01
 1.000000e+00  3.924061e-01
 1.000000e+00  3.784834e-01
 1.000000e+00  3.647544e-01
 1.000000e+00  3.512232e-01
 1.000000e+00  3.378942e-01
 1.000000e+00  3.247713e-01
 1.000000e+00  3.118588e-01
 1.000000e+00  2.991607e-01
 1.000000e+00  2.866808e-01
 1.000000e+00  2.744232e-01
 1.000000e+00  2.623915e-01
 1.000000e+00  2.505897e-01
 1.000000e+00  2.390212e-01
 1.000000e+00  2.276898e-01
 1.000000e+00  2.165990e-01
 1.000000e+00  2.057522e-01
 1.000000e+00  1.951528e-01
 1.000000e+00  1.848041e-01
 1.000000e+00  1.747093e-01
 1.000000e+00  1.648716e-01
 1.000000e+00  1.552940e-01
 1.000000e+00  1.459796e-01
 1.000000e+00  1.369311e-01
 1.000000e+00  1.281515e-01
 1.000000e+00  1.196435e-01
 1.000000e+00  1.114098e-01
 1.000000e+00  1.034528e-01
 1.000000e+00  9.577503e-02
 1.000000e+00  8.837896e-02
 1.000000e+00  8.126686e-02
 1.000000e+00  7.444093e-02
 1.000000e+00  6.790331e-02
 1.000000e+00  6.165604e-02
 1.000000e+00  5.570105e-02
 1.000000e+00  5.004020e-02
 1.000000e+00  4.467526e-02
 1.000000e+00  3.960789e-02
 1.000000e+00  3.483968e-02
 1.000000e+00  3.037212e-02
 1.000000e+00  2.620658e-02
 1.000000e+00  2.234438e-02
 1.000000e+00  1.878670e-02
 1.000000e+00  1.553467e-02
 1.000000e+00  1.258929e-02
 1.000000e+00  9.951489e-03
 1.000000e+00  7.622077e-03
 1.000000e+00  5.601784e-03
 1.000000e+00  3.891239e-03
 1.000000e+00  2.490975e-03
 1.000000e+00  1.401428e-03
 1.000000e+00  6.229377e-04
 1.000000e+00  1.557466e-04
 1.000000e+00  0.000000e+00

 1.000000e+00  1.000000e+00
 1.000000e+00  9.823515e-01
 1.000000e+00  9.647085e-01
 1.000000e+00  9.470765e-01
 1.000000e+00  9.294610e-01
 1.000000e+00  9.118675e-01
 1.000000e+00  8.943014e-01
 1.000000e+00  8.767683e-01
 1.000000e+00  8.592735e-01
 1.000000e+00  8.418226e-01
 1.000000e+00  8.244209e-01
 1.000000e+00  8.070739e-01
 1.000000e+00  7.897871e-01
 1.000000e+00  7.725657e-01
 1.000000e+00  7.554151e-01
 1.000000e+00  7.383407e-01
 1.000000e+00  7.213479e-01
 1.000000e+00  7.044418e-01
 1.000000e+00  6.876278e-01
 1.000000e+00  6.709111e-01
 1.000000e+00  6.542969e-01
 1.000000e+00  6.377904e-01
 1.000000e+00  6.213968e-01
 1.000000e+00  6.051210e-01
 1.000000e+00  5.889683e-01
 1.000000e+00  5.729436e-01
 1.000000e+00  5.570519e-01
 1.000000e+00  5.412982e-01
 1.000000e+00  5.256873e-01
 1.000000e+00  5.102243e-01
 1.000000e+00  4.949137e-01
 1.000000e+00  4.797606e-01
 1.000000e+00  4.647694e-01
 1.000000e+00  4.499450e-01
 1.000000e+00  4.352919e-01
 1.000000e+00  4.208147e-01
 1.000000e+00  4.065180e-01
 1.000000e+00  3.924061e-01
 1.000000e+00  3.784834e-01
 1.000000e+00  3.647544e-01
 1.000000e+00  3.512232e-01
 1.000000e+00  3.378942e-01
 1.000000e+00  3.247713e-01
 1.000000e+00  3.118588e-01
 1.000000e+00  2.991607e-01
 1.000000e+00  2.866808e-01
 1.000000e+00  2.744232e-01
 1.000000e+00  2.623915e-01
 1.000000e+00  2.505897e-01
 1.000000e+00  2.390212e-01
 1.000000e+00  2.276898e-01
 1.000000e+00  2.165990e-01
 1.000000e+00  2.057522e-01
 1.000000e+00  1.951528e-01
 1.000000e+00  1.848041e-01
 1.000000e+00  1.747093e-01
 1.000000e+00  1.648716e-01
 1.000000e+00  1.552940e-01
 1.000000e+00  1.459796e-01
 1.000000e+00  1.369311e-01
 1.000000e+00  1.281515e-01
 1.000000e+00  1.196435e-01
 1.000000e+00  1.114098e-01
 1.000000e+00  1.034528e-01
 1.000000e+00  9.577503e-02
 1.000000e+00  8.837896e-02
 1.000000e+00  8.126686e-02
 1.000000e+00  7.444093e-02
 1.000000e+00  6.790331e-02
 1.000000e+00  6.165604e-02
 1.000000e+00  5.570105e-02
 1.000000e+00  5.004020e-02
 1.000000e+00  4.467526e-02
 1.000000e+00  3.960789e-02
 1.000000e+00  3.483968e-02
 1.000000e+00  3.037212e-02
 1.000000e+00  2.620658e-02
 1.000000e+00  2.234438e-02
 1.000000e+00  1.878670e-02
 1.000000e+00  1.553467e-02
 1.000000e+00  1.258929e-02
 1.000000e+00  9.951489e-03
 1.000000e+00  7.622077e-03
 1.000000e+00  5.601784e-03
 1.000000e+00  3.891239e-03
 1.000000e+00  2.490975e-03
 1.000000e+00  1.401428e-03
 1.000000e+00  6.229377e-04
 1.000000e+00  1.557466e-04
 1.000000e+00  0.000000e+00

 1.000000e+00  1.000000e+00
 1.000000e+00  9.823515e-01
 1.000000e+00  9.647085e-01
 1.000000e+00  9.470765e-01
 1.000000e+00  9.294610e-01
 1.000000e+00  9.118675e-01
 1.000000e+00  8.943014e-01
 1.000000e+00  8.767683e-01
 1.000000e+00  8.592735e-01
 1.000000e+00  8.418226e-01
 1.000000e+00  8.244209e-01
 1.000000e+00  8.070739e-01
 1.000000e+00  7.897871e-01
 1.000000e+00  7.725657e-01
 1.000000e+00  7.554151e-01
 1.000000e+00  7.383407e-01
 1.000000e+00  7.213479e-01
 1.000000e+00  7.044418e-01
 1.000000e+00  6.876278e-01
 1.000000e+00  6.709111e-01
 1.000000e+00  6.542969e-01
 1.000000e+00  6.377904e-01
 1.000000e+00  6.213968e-01
 1.000000e+00  6.051210e-01
 1.000000e+00  5.889683e-01
 1.000000e+00  5.729436e-01
 1.000000e+00  5.570519e-01
 1.000000e+00  5.412982e-01
 1.000000e+00  5.256873e-01
 1.000000e+00  5.102243e-01
 1.000000e+00  4.949137e-01
 1.000000e+00  4.797606e-01
 1.000000e+00  4.647694e-01
 1.000000e+00  4.499450e-01
 1.000000e+00  4.352919e-01
 1.000000e+00  4.208147e-01
 1.000000e+00  4.065180e-01
 1.000000e+00  3.924061e-01
 1.000000e+00  3.784834e-01
 1.000000e+00  3.647544e-01
 1.000000e+00  3.512232e-01
 1.000000e+00  3.378942e-01
 1.000000e+00  3.247713e-01
 1.000000e+00  3.118588e-01
 1.000000e+00  2.991607e-01
 1.000000e+00  2.866808e-01
 1.000000e+00  2.744232e-01
 1.000000e+00  2.623915e-01
 1.000000e+00  2.505897e-01
 1.000000e+00  2.390212e-01
 1.000000e+00  2.276898e-01
 1.000000e+00  2.165990e-01
 1.000000e+00  2.057522e-01
 1.000000e+00  1.951528e-01
 1.000000e+00  1.848041e-01
 1.000000e+00  1.747093e-01
 1.000000e+00  1.648716e-01
 1.000000e+00  1.552940e-01
 1.000000e+00  1.459796e-01
 1.000000e+00  1.369311e-01
 1.000000e+00  1.281515e-01
 1.000000e+00  1.196435e-01
 1.000000e+00  1.114098e-01
 1.000000e+00  1.034528e-01
 1.000000e+00  9.577503e-02
 1.000000e+00  8.837896e-02
 1.000000e+00  8.126686e-02
 1.000000e+00  7.444093e-02
 1.000000e+00  6.790331e-02
 1.000000e+00  6.165604e-02
 1.000000e+00  5.570105e-02
 1.000000e+00  5.004020e-02
 1.000000e+00  4.467526e-02
 1.000000e+00  3.960789e-02
 1.000000e+00  3.483968e-02
 1.000000e+00  3.037212e-02
 1.000000e+00  2.620658e-02
 1.000000e+00  2.234438e-02
 1.000000e+00  1.878670e-02
 1.000000e+00  1.553467e-02
 1.000000e+00  1.258929e-02
 1.000000e+00  9.951489e-03
 1.000000e+00  7.622077e-03
 1.000000e+00  5.601784e-03
 1.000000e+00  3.891239e-03
 1.000000e+00  2.490975e-03
 1.000000e+00  1.401428e-03
 1.000000e+00  6.229377e-04
 1.000000e+00  1.557466e-04
 1.000000e+00  0.000000e+00

 1.000000e+00  1.000000e+00
 1.000000e+00  9.823515e-01
 1.000000e+00  9.647085e-01
 1.000000e+00  9.470765e-01
 1.000000e+00  9.294610e-01
 1.000000e+00  9.118675e-01
 1.000000e+00  8.943014e-01
 1.000000e+00  8.767683e-01
 1.000000e+00  8.592735e-01
 1.000000e+00  8.418226e-01
 1.000000e+00  8.244209e-01
 1.000000e+00  8.070739e-01
 1.000000e+00  7.897871e-01
 1.000000e+00  7.725657e-01
 1.000000e+00  7.554151e-01
 1.000000e+00  7.383407e-01
 1.000000e+00  7.213479e-01
 1.000000e+00  7.044418e-01
 1.000000e+00  6.876278e-01
 1.000000e+00  6.709111e-01
 1.000000e+00  6.542969e-01
 1.000000e+00  6.377904e-01
 1.000000e+00  6.213968e-01
 1.000000e+00  6.051210e-01
 1.000000e+00  5.889683e-01
 1.000000e+00  5.729436e-01
 1.000000e+00  5.570519e-01
 1.000000e+00  5.412982e-01
 1.000000e+00  5.256873e-01
 1.000000e+00  5.102243e-01
 1.000000e+00  4.949137e-01
 1.000000e+00  4.797606e-01
 1.000000e+00  4.647694e-01
 1.000000e+00  4.499450e-01
 1.000000e+00  4.352919e-01
 1.000000e+00  4.208147e-01
 1.000000e+00  4.065180e-01
 1.000000e+00  3.924061e-01
 1.000000e+00  3.784834e-01
 1.000000e+00  3.647544e-01
 1.000000e+00  3.512232e-01
 1.000000e+00  3.378942e-01
 1.000000e+00  3.247713e-01
 1.000000e+00  3.118588e-01
 1.000000e+00  2.991607e-01
 1.000000e+00  2.866808e-01
 1.000000e+00  2.744232e-01
 1.000000e+00  2.623915e-01
 1.000000e+00  2.505897e-01
 1.000000e+00  2.390212e-01
 1.000000e+00  2.276898e-01
 1.000000e+00  2.165990e-01
 1.000000e+00  2.057522e-01
 1.000000e+00  1.951528e-01
 1.000000e+00  1.848041e-01
 1.000000e+00  1.747093e-01
 1.000000e+00  1.648716e-01
 1.000000e+00  1.552940e-01
 1.000000e+00  1.459796e-01
 1.000000e+00  1.369311e-01
 1.000000e+00  1.281515e-01
 1.000000e+00  1.196435e-01
 1.000000e+00  1.114098e-01
 1.000000e+00  1.034528e-01
 1.000000e+00  9.577503e-02
 1.000000e+00  8.837896e-02
 1.000000e+00  8.126686e-02
 1.000000e+00  7.444093e-02
 1.000000e+00  6.790331e-02
 1.000000e+00  6.165604e-02
 1.000000e+00  5.570105e-02
 1.000000e+00  5.004020e-02
 1.000000e+00  4.467526e-02
 1.000000e+00  3.960789e-02
 1.000000e+00  3.483968e-02
 1.000000e+00  3.037212e-02
 1.000000e+00  2.620658e-02
 1.000000e+00  2.234438e-02
 1.000000e+00  1.878670e-02
 1.000000e+00  1.553467e-02
 1.000000e+00  1.258929e-02
 1.000000e+00  9.951489e-03
 1.000000e+00  7.622077e-03
 1.000000e+00  5.601784e-03
 1.000000e+00  3.891239e-03
 1.000000e+00  2.490975e-03
 1.000000e+00  1.401428e-03
 1.000000e+00  6.229377e-04
 1.000000e+00  1.557466e-04
 1.000000e+00  0.000000e+00

 1.000000e+00  1.000000e+00
 1.000000e+00  9.823515e-01
 1.000000e+00  9.647085e-01
 1.000000e+00  9.470765e-01
 1.000000e+00  9.294610e-01
 1.000000e+00  9.118675e-01
 1.000000e+00  8.943014e-01
 1.000000e+00  8.767683e-01
 1.000000e+00  8.592735e-01
 1.000000e+00  8.418226e-01
 1.000000e+00  8.244209e-01
 1.000000e+00  8.070739e-01
 1.000000e+00  7.897871e-01
 1.000000e+00  7.725657e-01
 1.000000e+00  7.554151e-01
 1.000000e+00  7.383407e-01
 1.000000e+00  7.213479e-01
 1.000000e+00  7.044418e-01
 1.000000e+00  6.876278e-01
 1.000000e+00  6.709111e-01
 1.000000e+00  6.542969e-01
 1.000000e+00  6.377904e-01
 1.000000e+00  6.213968e-01
 1.000000e+00  6.051210e-01
 1.000000e+00  5.889683e-01
 1.000000e+00  5.729436e-01
 1.000000e+00  5.570519e-01
 1.000000e+00  5.412982e-01
 1.000000e+00  5.256873e-01
 1.000000e+00  5.102243e-01
 1.000000e+00  4.949137e-01
 1.000000e+00  4.797606e-01
 1.000000e+00  4.647694e-01
 1.000000e+00  4.499450e-01
 1.000000e+00  4.352919e-01
 1.000000e+00  4.208147e-01
 1.000000e+00  4.065180e-01
 1.000000e+00  3.924061e-01
 1.000000e+00  3.784834e-01
 1.000000e+00  3.647544e-01
 1.000000e+00  3.512232e-01
 1.000000e+00  3.378942e-01
 1.000000e+00  3.247713e-01
 1.000000e+00  3.118588e-01
 1.000000e+00  2.991607e-01
 1.000000e+00  2.866808e-01
 1.000000e+00  2.744232e-01
 1.000000e+00  2.623915e-01
 1.000000e+00  2.505897e-01
 1.000000e+00  2.390212e-01
 1.000000e+00  2.276898e-01
 1.000000e+00  2.165990e-01
 1.000000e+00  2.057522e-01
 1.000000e+00  1.951528e-01
 1.000000e+00  1.848041e-01
 1.000000e+00  1.747093e-01
 1.000000e+00  1.648716e-01
 1.000000e+00  1.552940e-01
 1.000000e+00  1.459796e-01
 1.000000e+00  1.369311e-01
 1.000000e+00  1.281515e-01
 1.000000e+00  1.196435e-01
 1.000000e+00  1.114098e-01
 1.000000e+00  1.034528e-01
 1.000000e+00  9.577503e-02
 1.000000e+00  8.837896e-02
 1.000000e+00  8.126686e-02
 1.000000e+00  7.444093e-02
 1.000000e+00  6.790331e-02
 1.000000e+00  6.165604e-02
 1.000000e+00  5.570105e-02
 1.000000e+00  5.004020e-02
 1.000000e+00  4.467526e-02
 1.000000e+00  3.960789e-02
 1.000000e+00  3.483968e-02
 1.000000e+00  3.037212e-02
 1.000000e+00  2.620658e-02
 1.000000e+00  2.234438e-02
 1.000000e+00  1.878670e-02
 1.000000e+00  1.553467e-02
 1.000000e+00  1.258929e-02
 1.000000e+00  9.951489e-03
 1.000000e+00  7.622077e-03
 1.000000e+00  5.601784e-03
 1.000000e+00  3.891239e-03
 1.000000e+00  2.490975e-03
 1.000000e+00  1.401428e-03
 1.000000e+00  6.229377e-04
 1.000000e+00  1.557466e-04
 1.000000e+00  0.000000e+00

 1.000000e+00  1.000000e+00
 1.000000e+00  9.823515e-01
 1.000000e+00  9.647085e-01
 1.000000e+00  9.470765e-01
 1.000000e+00  9.294610e-01
 1.000000e+00  9.118675e-01
 1.000000e+00  8.943014e-01
 1.000000e+00  8.767683e-01
 1.000000e+00  8.592735e-01
 1.000000e+00  8.418226e-01
 1.000000e+00  8.244209e-01
 1.000000e+00  8.070739e-01
 1.000000e+00  7.897871e-01
 1.000000e+00  7.725657e-01
 1.000000e+00  7.554151e-01
 1.000000e+00  7.383407e-01
 1.000000e+00  7.213479e-01
 1.000000e+00  7.044418e-01
 1.000000e+00  6.876278e-01
 1.000000e+00  6.709111e-01
 1.000000e+00  6.542969e-01
 1.000000e+00  6.377904e-01
 1.000000e+00  6.213968e-01
 1.000000e+00  6.051210e-01
 1.000000e+00  5.889683e-01
 1.000000e+00  5.729436e-01
 1.000000e+00  5.570519e-01
 1.000000e+00  5.412982e-01
 1.000000e+00  5.256873e-01
 1.000000e+00  5.102243e-01
 1.000000e+00  4.949137e-01
 1.000000e+00  4.797606e-01
 1.000000e+00  4.647694e-01
 1.000000e+00  4.499450e-01
 1.000000e+00  4.352919e-01
 1.000000e+00  4.208147e-01
 1.000000e+00  4.065180e-01
 1.000000e+00  3.924061e-01
 1.000000e+00  3.784834e-01
 1.000000e+00  3.647544e-01
 1.000000e+00  3.512232e-01
 1.000000e+00  3.378942e-01
 1.000000e+00  3.247713e-01
 1.000000e+00  3.118588e-01
 1.000000e+00  2.991607e-01
 1.000000e+00  2.866808e-01
 1.000000e+00  2.744232e-01
 1.000000e+00  2.623915e-01
 1.000000e+00  2.505897e-01
 1.000000e+00  2.390212e-01
 1.000000e+00  2.276898e-01
 1.000000e+00  2.165990e-01
 1.000000e+00  2.057522e-01
 1.000000e+00  1.951528e-01
 1.000000e+00  1.848041e-01
 1.000000e+00  1.747093e-01
 1.000000e+00  1.648716e-01
 1.000000e+00  1.552940e-01
 1.000000e+00  1.459796e-01
 1.000000e+00  1.369311e-01
 1.000000e+00  1.281515e-01
 1.000000e+00  1.196435e-01
 1.000000e+00  1.114098e-01
 1.000000e+00  1.034528e-01
 1.000000e+00  9.577503e-02
 1.000000e+00  8.837896e-02
 1.000000e+00  8.126686e-02
 1.000000e+00  7.444093e-02
 1.000000e+00  6.790331e-02
 1.000000e+00  6.165604e-02
 1.000000e+00  5.570105e-02
 1.000000e+00  5.004020e-02
 1.000000e+00  4.467526e-02
 1.000000e+00  3.960789e-02
 1.000000e+00  3.483968e-02
 1.000000e+00  3.037212e-02
 1.000000e+00  2.620658e-02
 1.000000e+00  2.234438e-02
 1.000000e+00  1.878670e-02
 1.000000e+00  1.553467e-02
 1.000000e+00  1.258929e-02
 1.000000e+00  9.951489e-03
 1.000000e+00  7.622077e-03
 1.000000e+00  5.601784e-03
 1.000000e+00  3.891239e-03
 1.000000e+00  2.490975e-03
 1.000000e+00  1.401428e-03
 1.000000e+00  6.229377e-04
 1.000000e+00  1.557466e-04
 1.000000e+00  0.000000e+00

 1.000000e+00  1.000000e+00
 1.000000e+00  9.823515e-01
 1.000000e+00  9.647085e-01
 1.000000e+00  9.470765e-01
 1.000000e+00  9.294610e-01
 1.000000e+00  9.118675e-01
 1.000000e+00  8.943014e-01
 1.000000e+00  8.767683e-01
 1.000000e+00  8.592735e-01
 1.000000e+00  8.418226e-01
 1.000000e+00  8.244209e-01
 1.000000e+00  8.070739e-01
 1.000000e+00  7.897871e-01
 1.000000e+00  7.725657e-01
 1.000000e+00  7.554151e-01
 1.000000e+00  7.383407e-01
 1.000000e+00  7.213479e-01
 1.000000e+00  7.044418e-01
 1.000000e+00  6.876278e-01
 1.000000e+00  6.709111e-01
 1.000000e+00  6.542969e-01
 1.000000e+00  6.377904e-01
 1.000000e+00  6.213968e-01
 1.000000e+00  6.051210e-01
 1.000000e+00  5.889683e-01
 1.000000e+00  5.729436e-01
 1.000000e+00  5.570519e-01
 1.000000e+00  5.412982e-01
 1.000000e+00  5.256873e-01
 1.000000e+00  5.102243e-01
 1.000000e+00  4.949137e-01
 1.000000e+00  4.797606e-01
 1.000000e+00  4.647694e-01
 1.000000e+00  4.499450e-01
 1.000000e+00  4.352919e-01
 1.000000e+00  4.208147e-01
 1.000000e+00  4.065180e-01
 1.000000e+00  3.924061e-01
 1.000000e+00  3.784834e-01
 1.000000e+00  3.647544e-01
 1.000000e+00  3.512232e-01
 1.000000e+00  3.378942e-01
 1.000000e+00  3.247713e-01
 1.000000e+00  3.118588e-01
 1.000000e+00  2.991607e-01
 1.000000e+00  2.866808e-01
 1.000000e+00  2.744232e-01
 1.000000e+00  2.623915e-01
 1.000000e+00  2.505897e-01
 1.000000e+00  2.390212e-01
 1.000000e+00  2.276898e-01
 1.000000e+00  2.165990e-01
 1.000000e+00  2.057522e-01
 1.000000e+00  1.951528e-01
 1.000000e+00  1.848041e-01
 1.000000e+00  1.747093e-01
 1.000000e+00  1.648716e-01
 1.000000e+00  1.552940e-01
 1.000000e+00  1.459796e-01
 1.000000e+00  1.369311e-01
 1.000000e+00  1.281515e-01
 1.000000e+00  1.196435e-01
 1.000000e+00  1.114098e-01
 1.000000e+00  1.034528e-01
 1.000000e+00  9.577503e-02
 1.000000e+00  8.837896e-02
 1.000000e+00  8.126686e-02
 1.000000e+00  7.444093e-02
 1.000000e+00  6.790331e-02
 1.000000e+00  6.165604e-02
 1.000000e+00  5.570105e-02
 1.000000e+00  5.004020e-02
 1.000000e+00  4.467526e-02
 1.000000e+00  3.960789e-02
 1.000000e+00  3.483968e-02
 1.000000e+00  3.037212e-02
 1.000000e+00  2.620658e-02
 1.000000e+00  2.234438e-02
 1.000000e+00  1.878670e-02
 1.000000e+00  1.553467e-02
 1.000000e+00  1.258929e-02
 1.000000e+00  9.951489e-03
 1.000000e+00  7.622077e-03
 1.000000e+00  5.601784e-03
 1.000000e+00  3.891239e-03
 1.000000e+00  2.490975e-03
 1.000000e+00  1.401428e-03
 1.000000e+00  6.229377e-04
 1.000000e+00  1.557466e-04
 1.000000e+00  0.000000e+00

 1.000000e+00  1.000000e+00
 1.000000e+00  9.823515e-01
 1.000000e+00  9.647085e-01
 1.000000e+00  9.470765e-01
 1.000000e+00  9.294610e-01
 1.000000e+00  9.118675e-01
 1.000000e+00  8.943014e-01
 1.000000e+00  8.767683e-01
 1.000000e+00  8.592735e-01
 1.000000e+00  8.418226e-01
 1.000000e+00  8.244209e-01
 1.000000e+00  8.070739e-01
 1.000000e+00  7.897871e-01
 1.000000e+00  7.725657e-01
 1.000000e+00  7.554151e-01
 1.000000e+00  7.383407e-01
 1.000000e+00  7.213479e-01
 1.000000e+00  7.044418e-01
 1.000000e+00  6.876278e-01
 1.000000e+00  6.709111e-01
 1.000000e+00  6.542969e-01
 1.000000e+00  6.377904e-01
 1.000000e+00  6.213968e-01
 1.000000e+00  6.051210e-01
 1.000000e+00  5.889683e-01
 1.000000e+00  5.729436e-01
 1.000000e+00  5.570519e-01
 1.000000e+00  5.412982e-01
 1.000000e+00  5.256873e-01
 1.000000e+00  5.102243e-01
 1.000000e+00  4.949137e-01
 1.000000e+00  4.797606e-01
 1.000000e+00  4.647694e-01
 1.000000e+00  4.499450e-01
 1.000000e+00  4.352919e-01
 1.000000e+00  4.208147e-01
 1.000000e+00  4.065180e-01
 1.000000e+00  3.924061e-01
 1.000000e+00  3.784834e-01
 1.000000e+00  3.647544e-01
 1.000000e+00  3.512232e-01
 1.000000e+00  3.378942e-01
 1.000000e+00  3.247713e-01
 1.000000e+00  3.118588e-01
 1.000000e+00  2.991607e-01
 1.000000e+00  2.866808e-01
 1.000000e+00  2.744232e-01
 1.000000e+00  2.623915e-01
 1.000000e+00  2.505897e-01
 1.000000e+00  2.390212e-01
 1.000000e+00  2.276898e-01
 1.000000e+00  2.165990e-01
 1.000000e+00  2.057522e-01
 1.000000e+00  1.951528e-01
 1.000000e+00  1.848041e-01
 1.000000e+00  1.747093e-01
 1.000000e+00  1.648716e-01
 1.000000e+00  1.552940e-01
 1.000000e+00  1.459796e-01
 1.000000e+00  1.369311e-01
 1.000000e+00  1.281515e-01
 1.000000e+00  1.196435e-01
 1.000000e+00  1.114098e-01
 1.000000e+00  1.034528e-01
 1.000000e+00  9.577503e-02
 1.000000e+00  8.837896e-02
 1.000000e+00  8.126686e-02
 1.000000e+00  7.444093e-02
 1.000000e+00  6.790331e-02
 1.000000e+00  6.165604e-02
 1.000000e+00  5.570105e-02
 1.000000e+00  5.004020e-02
 1.000000e+00  4.467526e-02
 1.000000e+00  3.960789e-02
 1.000000e+00  3.483968e-02
 1.000000e+00  3.037212e-02
 1.000000e+00  2.620658e-02
 1.000000e+00  2.234438e-02
 1.000000e+00  1.878670e-02
 1.000000e+00  1.553467e-02
 1.000000e+00  1.258929e-02
 1.000000e+00  9.951489e-03
 1.000000e+00  7.622077e-03
 1.000000e+00  5.601784e-03
 1.000000e+00  3.891239e-03
 1.000000e+00  2.490975e-03
 1.000000e+00  1.401428e-03
 1.000000e+00  6.229377e-04
 1.000000e+00  1.557466e-04
 1.000000e+00  0.000000e+00

 1.000000e+00  1.000000e+00
 1.000000e+00  9.823515e-01
 1.000000e+00  9.647085e-01
 1.000000e+00  9.470765e-01
 1.000000e+00  9.294610e-01
 1.000000e+00  9.118675e-01
 1.000000e+00  8.943014e-01
 1.000000e+00  8.767683e-01
 1.000000e+00  8.592735e-01
 1.000000e+00  8.418226e-01
 1.000000e+00  8.244209e-01
 1.000000e+00  8.070739e-01
 1.000000e+00  7.897871e-01
 1.000000e+00  7.725657e-01
 1.000000e+00  7.554151e-01
 1.000000e+00  7.383407e-01
 1.000000e+00  7.213479e-01
 1.000000e+00  7.044418e-01
 1.000000e+00  6.876278e-01
 1.000000e+00  6.709111e-01
 1.000000e+00  6.542969e-01
 1.000000e+00  6.377904e-01
 1.000000e+00  6.213968e-01
 1.000000e+00  6.051210e-01
 1.000000e+00  5.889683e-01
 1.000000e+00  5.729436e-01
 1.000000e+00  5.570519e-01
 1.000000e+00  5.412982e-01
 1.000000e+00  5.256873e-01
 1.000000e+00  5.102243e-01
 1.000000e+00  4.949137e-01
 1.000000e+00  4.797606e-01
 1.000000e+00  4.647694e-01
 1.000000e+00  4.499450e-01
 1.000000e+00  4.352919e-01
 1.000000e+00  4.208147e-01
 1.000000e+00  4.065180e-01
 1.000000e+00  3.924061e-01
 1.000000e+00  3.784834e-01
 1.000000e+00  3.647544e-01
 1.000000e+00  3.512232e-01
 1.000000e+00  3.378942e-01
 1.000000e+00  3.247713e-01
 1.000000e+00  3.118588e-01
 1.000000e+00  2.991607e-01
 1.000000e+00  2.866808e-01
 1.000000e+00  2.744232e-01
 1.000000e+00  2.623915e-01
 1.000000e+00  2.505897e-01
 1.000000e+00  2.390212e-01
 1.000000e+00  2.276898e-01
 1.000000e+00  2.165990e-01
 1.000000e+00  2.057522e-01
 1.000000e+00  1.951528e-01
 1.000000e+00  1.848041e-01
 1.000000e+00  1.747093e-01
 1.000000e+00  1.648716e-01
 1.000000e+00  1.552940e-01
 1.000000e+00  1.459796e-01
 1.000000e+00  1.369311e-01
 1.000000e+00  1.281515e-01
 1.000000e+00  1.196435e-01
 1.000000e+00  1.114098e-01
 1.000000e+00  1.034528e-01
 1.000000e+00  9.577503e-02
 1.000000e+00  8.837896e-02
 1.000000e+00  8.126686e-02
 1.000000e+00  7.444093e-02
 1.000000e+00  6.790331e-02
 1.000000e+00  6.165604e-02
 1.000000e+00  5.570105e-02
 1.000000e+00  5.004020e-02
 1.000000e+00  4.467526e-02
 1.000000e+00  3.960789e-02
 1.000000e+00  3.483968e-02
 1.000000e+00  3.037212e-02
 1.000000e+00  2.620658e-02
 1.000000e+00  2.234438e-02
 1.000000e+00  1.878670e-02
 1.000000e+00  1.553467e-02
 1.000000e+00  1.258929e-02
 1.000000e+00  9.951489e-03
 1.000000e+00  7.622077e-03
 1.000000e+00  5.601784e-03
 1.000000e+00  3.891239e-03
 1.000000e+00  2.490975e-03
 1.000000e+00  1.401428e-03
 1.000000e+00  6.229377e-04
 1.000000e+00  1.557466e-04
 1.000000e+00  0.000000e+00

 1.000000e+00  1.000000e+00
 1.000000e+00  9.823515e-01
 1.000000e+00  9.647085e-01
 1.000000e+00  9.470765e-01
 1.000000e+00  9.294610e-01
 1.000000e+00  9.118675e-01
 1.000000e+00  8.943014e-01
 1.000000e+00  8.767683e-01
 1.000000e+00  8.592735e-01
 1.000000e+00  8.418226e-01
 1.000000e+00  8.244209e-01
 1.000000e+00  8.070739e-01
 1.000000e+00  7.897871e-01
 1.000000e+00  7.725657e-01
 1.000000e+00  7.554151e-01
 1.000000e+00  7.383407e-01
 1.000000e+00  7.213479e-01
 1.000000e+00  7.044418e-01
 1.000000e+00  6.876278e-01
 1.000000e+00  6.709111e-01
 1.000000e+00  6.542969e-01
 1.000000e+00  6.377904e-01
 1.000000e+00  6.213968e-01
 1.000000e+00  6.051210e-01
 1.000000e+00  5.889683e-01
 1.000000e+00  5.729436e-01
 1.000000e+00  5.570519e-01
 1.000000e+00  5.412982e-01
 1.000000e+00  5.256873e-01
 1.000000e+00  5.102243e-01
 1.000000e+00  4.949137e-01
 1.000000e+00  4.797606e-01
 1.000000e+00  4.647694e-01
 1.000000e+00  4.499450e-01
 1.000000e+00  4.352919e-01
 1.000000e+00  4.208147e-01
 1.000000e+00  4.065180e-01
 1.000000e+00  3.924061e-01
 1.000000e+00  3.784834e-01
 1.000000e+00  3.647544e-01
 1.000000e+00  3.512232e-01
 1.000000e+00  3.378942e-01
 1.000000e+00  3.247713e-01
 1.000000e+00  3.118588e-01
 1.000000e+00  2.991607e-01
 1.000000e+00  2.866808e-01
 1.000000e+00  2.744232e-01
 1.000000e+00  2.623915e-01
 1.000000e+00  2.505897e-01
 1.000000e+00  2.390212e-01
 1.000000e+00  2.276898e-01
 1.000000e+00  2.165990e-01
 1.000000e+00  2.057522e-01
 1.000000e+00  1.951528e-01
 1.000000e+00  1.848041e-01
 1.000000e+00  1.747093e-01
 1.000000e+00  1.648716e-01
 1.000000e+00  1.552940e-01
 1.000000e+00  1.459796e-01
 1.000000e+00  1.369311e-01
 1.000000e+00  1.281515e-01
 1.000000e+00  1.196435e-01
 1.000000e+00  1.114098e-01
 1.000000e+00  1.034528e-01
 1.000000e+00  9.577503e-02
 1.000000e+00  8.837896e-02
 1.000000e+00  8.126686e-02
 1.000000e+00  7.444093e-02
 1.000000e+00  6.790331e-02
 1.000000e+00  6.165604e-02
 1.000000e+00  5.570105e-02
 1.000000e+00  5.004020e-02
 1.000000e+00  4.467526e-02
 1.000000e+00  3.960789e-02
 1.000000e+00  3.483968e-02
 1.000000e+00  3.037212e-02
 1.000000e+00  2.620658e-02
 1.000000e+00  2.234438e-02
 1.000000e+00  1.878670e-02
 1.000000e+00  1.553467e-02
 1.000000e+00  1.258929e-02
 1.000000e+00  9.951489e-03
 1.000000e+00  7.622077e-03
 1.000000e+00  5.601784e-03
 1.000000e+00  3.891239e-03
 1.000000e+00  2.490975e-03
 1.000000e+00  1.401428e-03
 1.000000e+00  6.229377e-04
 1.000000e+00  1.557466e-04
 1.000000e+00  0.000000e+00

 1.000000e+00  1.000000e+00
 1.000000e+00  9.823515e-01
 1.000000e+00  9.647085e-01
 1.000000e+00  9.470765e-01
 1.000000e+00  9.294610e-01
 1.000000e+00  9.118675e-01
 1.000000e+00  8.943014e-01
 1.000000e+00  8.767683e-01
 1.000000e+00  8.592735e-01
 1.000000e+00  8.418226e-01
 1.000000e+00  8.244209e-01
 1.000000e+00  8.070739e-01
 1.000000e+00  7.897871e-01
 1.000000e+00  7.725657e-01
 1.000000e+00  7.554151e-01
 1.000000e+00  7.383407e-01
 1.000000e+00  7.213479e-01
 1.000000e+00  7.044418e-01
 1.000000e+00  6.876278e-01
 1.000000e+00  6.709111e-01
 1.000000e+00  6.542969e-01
 1.000000e+00  6.377904e-01
 1.000000e+00  6.213968e-01
 1.000000e+00  6.051210e-01
 1.000000e+00  5.889683e-01
 1.000000e+00  5.729436e-01
 1.000000e+00  5.570519e-01
 1.000000e+00  5.412982e-01
 1.000000e+00  5.256873e-01
 1.000000e+00  5.102243e-01
 1.000000e+00  4.949137e-01
 1.000000e+00  4.797606e-01
 1.000000e+00  4.647694e-01
 1.000000e+00  4.499450e-01
 1.000000e+00  4.352919e-01
 1.000000e+00  4.208147e-01
 1.000000e+00  4.065180e-01
 1.000000e+00  3.924061e-01
 1.000000e+00  3.784834e-01
 1.000000e+00  3.647544e-01
 1.000000e+00  3.512232e-01
 1.000000e+00  3.378942e-01
 1.000000e+00  3.247713e-01
 1.000000e+00  3.118588e-01
 1.000000e+00  2.991607e-01
 1.000000e+00  2.866808e-01
 1.000000e+00  2.744232e-01
 1.000000e+00  2.623915e-01
 1.000000e+00  2.505897e-01
 1.000000e+00  2.390212e-01
 1.000000e+00  2.276898e-01
 1.000000e+00  2.165990e-01
 1.000000e+00  2.057522e-01
 1.000000e+00  1.951528e-01
 1.000000e+00  1.848041e-01
 1.000000e+00  1.747093e-01
 1.000000e+00  1.648716e-01
 1.000000e+00  1.552940e-01
 1.000000e+00  1.459796e-01
 1.000000e+00  1.369311e-01
 1.000000e+00  1.281515e-01
 1.000000e+00  1.196435e-01
 1.000000e+00  1.114098e-01
 1.000000e+00  1.034528e-01
 1.000000e+00  9.577503e-02
 1.000000e+00  8.837896e-02
 1.000000e+00  8.126686e-02
 1.000000e+00  7.444093e-02
 1.000000e+00  6.790331e-02
 1.000000e+00  6.165604e-02
 1.000000e+00  5.570105e-02
 1.000000e+00  5.004020e-02
 1.000000e+00  4.467526e-02
 1.000000e+00  3.960789e-02
 1.000000e+00  3.483968e-02
 1.000000e+00  3.037212e-02
 1.000000e+00  2.620658e-02
 1.000000e+00  2.234438e-02
 1.000000e+00  1.878670e-02
 1.000000e+00  1.553467e-02
 1.000000e+00  1.258929e-02
 1.000000e+00  9.951489e-03
 1.000000e+00  7.622077e-03
 1.000000e+00  5.601784e-03
 1.000000e+00  3.891239e-03
 1.000000e+00  2.490975e-03
 1.000000e+00  1.401428e-03
 1.000000e+00  6.229377e-04
 1.000000e+00  1.557466e-04
 1.000000e+00  0.000000e+00

 1.000000e+00  1.000000e+00
 1.000000e+00  9.823515e-01
 1.000000e+00  9.647085e-01
 1.000000e+00  9.470765e-01
 1.000000e+00  9.294610e-01
 1.000000e+00  9.118675e-01
 1.000000e+00  8.943014e-01
 1.000000e+00  8.767683e-01
 1.000000e+00  8.592735e-01
 1.000000e+00  8.418226e-01
 1.000000e+00  8.244209e-01
 1.000000e+00  8.070739e-01
 1.000000e+00  7.897871e-01
 1.000000e+00  7.725657e-01
 1.000000e+00  7.554151e-01
 1.000000e+00  7.383407e-01
 1.000000e+00  7.213479e-01
 1.000000e+00  7.044418e-01
 1.000000e+00  6.876278e-01
 1.000000e+00  6.709111e-01
 1.000000e+00  6.542969e-01
 1.000000e+00  6.377904e-01
 1.000000e+00  6.213968e-01
 1.000000e+00  6.051210e-01
 1.000000e+00  5.889683e-01
 1.000000e+00  5.729436e-01
 1.000000e+00  5.570519e-01
 1.000000e+00  5.412982e-01
 1.000000e+00  5.256873e-01
 1.000000e+00  5.102243e-01
 1.000000e+00  4.949137e-01
 1.000000e+00  4.797606e-01
 1.000000e+00  4.647694e-01
 1.000000e+00  4.499450e-01
 1.000000e+00  4.352919e-01
 1.000000e+00  4.208147e-01
 1.000000e+00  4.065180e-01
 1.000000e+00  3.924061e-01
 1.000000e+00  3.784834e-01
 1.000000e+00  3.647544e-01
 1.000000e+00  3.512232e-01
 1.000000e+00  3.378942e-01
 1.000000e+00  3.247713e-01
 1.000000e+00  3.118588e-01
 1.000000e+00  2.991607e-01
 1.000000e+00  2.866808e-01
 1.000000e+00  2.744232e-01
 1.000000e+00  2.623915e-01
 1.000000e+00  2.505897e-01
 1.000000e+00  2.390212e-01
 1.000000e+00  2.276898e-01
 1.000000e+00  2.165990e-01
 1.000000e+00  2.057522e-01
 1.000000e+00  1.951528e-01
 1.000000e+00  1.848041e-01
 1.000000e+00  1.747093e-01
 1.000000e+00  1.648716e-01
 1.000000e+00  1.552940e-01
 1.000000e+00  1.459796e-01
 1.000000e+00  1.369311e-01
 1.000000e+00  1.281515e-01
 1.000000e+00  1.196435e-01
 1.000000e+00  1.114098e-01
 1.000000e+00  1.034528e-01
 1.000000e+00  9.577503e-02
 1.000000e+00  8.837896e-02
 1.000000e+00  8.126686e-02
 1.000000e+00  7.444093e-02
 1.000000e+00  6.790331e-02
 1.000000e+00  6.165604e-02
 1.000000e+00  5.570105e-02
 1.000000e+00  5.004020e-02
 1.000000e+00  4.467526e-02
 1.000000e+00  3.960789e-02
 1.000000e+00  3.483968e-02
 1.000000e+00  3.037212e-02
 1.000000e+00  2.620658e-02
 1.000000e+00  2.234438e-02
 1.000000e+00  1.878670e-02
 1.000000e+00  1.553467e-02
 1.000000e+00  1.258929e-02
 1.000000e+00  9.951489e-03
 1.000000e+00  7.622077e-03
 1.000000e+00  5.601784e-03
 1.000000e+00  3.891239e-03
 1.000000e+00  2.490975e-03
 1.000000e+00  1.401428e-03
 1.000000e+00  6.229377e-04
 1.000000e+00  1.557466e-04
 1.000000e+00  0.000000e+00

 1.000000e+00  1.000000e+00
 1.000000e+00  9.823515e-01
 1.000000e+00  9.647085e-01
 1.000000e+00  9.470765e-01
 1.000000e+00  9.294610e-01
 1.000000e+00  9.118675e-01
 1.000000e+00  8.943014e-01
 1.000000e+00  8.767683e-01
 1.000000e+00  8.592735e-01
 1.000000e+00  8.418226e-01
 1.000000e+00  8.244209e-01
 1.000000e+00  8.070739e-01
 1.000000e+00  7.897871e-01
 1.000000e+00  7.725657e-01
 1.000000e+00  7.554151e-01
 1.000000e+00  7.383407e-01
 1.000000e+00  7.213479e-01
 1.000000e+00  7.044418e-01
 1.000000e+00  6.876278e-01
 1.000000e+00  6.709111e-01
 1.000000e+00  6.542969e-01
 1.000000e+00  6.377904e-01
 1.000000e+00  6.213968e-01
 1.000000e+00  6.051210e-01
 1.000000e+00  5.889683e-01
 1.000000e+00  5.729436e-01
 1.000000e+00  5.570519e-01
 1.000000e+00  5.412982e-01
 1.000000e+00  5.256873e-01
 1.000000e+00  5.102243e-01
 1.000000e+00  4.949137e-01
 1.000000e+00  4.797606e-01
 1.000000e+00  4.647694e-01
 1.000000e+00  4.499450e-01
 1.000000e+00  4.352919e-01
 1.000000e+00  4.208147e-01
 1.000000e+00  4.065180e-01
 1.000000e+00  3.924061e-01
 1.000000e+00  3.784834e-01
 1.000000e+00  3.647544e-01
 1.000000e+00  3.512232e-01
 1.000000e+00  3.378942e-01
 1.000000e+00  3.247713e-01
 1.000000e+00  3.118588e-01
 1.000000e+00  2.991607e-01
 1.000000e+00  2.866808e-01
 1.000000e+00  2.744232e-01
 1.000000e+00  2.623915e-01
 1.000000e+00  2.505897e-01
 1.000000e+00  2.390212e-01
 1.000000e+00  2.276898e-01
 1.000000e+00  2.165990e-01
 1.000000e+00  2.057522e-01
 1.000000e+00  1.951528e-01
 1.000000e+00  1.848041e-01
 1.000000e+00  1.747093e-01
 1.000000e+00  1.648716e-01
 1.000000e+00  1.552940e-01
 1.000000e+00  1.459796e-01
 1.000000e+00  1.369311e-01
 1.000000e+00  1.281515e-01
 1.000000e+00  1.196435e-01
 1.000000e+00  1.114098e-01
 1.000000e+00  1.034528e-01
 1.000000e+00  9.577503e-02
 1.000000e+00  8.837896e-02
 1.000000e+00  8.126686e-02
 1.000000e+00  7.444093e-02
 1.000000e+00  6.790331e-02
 1.000000e+00  6.165604e-02
 1.000000e+00  5.570105e-02
 1.000000e+00  5.004020e-02
 1.000000e+00  4.467526e-02
 1.000000e+00  3.960789e-02
 1.000000e+00  3.483968e-02
 1.000000e+00  3.037212e-02
 1.000000e+00  2.620658e-02
 1.000000e+00  2.234438e-02
 1.000000e+00  1.878670e-02
 1.000000e+00  1.553467e-02
 1.000000e+00  1.258929e-02
 1.000000e+00  9.951489e-03
 1.000000e+00  7.622077e-03
 1.000000e+00  5.601784e-03
 1.000000e+00  3.891239e-03
 1.000000e+00  2.490975e-03
 1.000000e+00  1.401428e-03
 1.000000e+00  6.229377e-04
 1.000000e+00  1.557466e-04
 1.000000e+00  0.000000e+00

 1.000000e+00  1.000000e+00
 1.000000e+00  9.823515e-01
 1.000000e+00  9.647085e-01
 1.000000e+00  9.470765e-01
 1.000000e+00  9.294610e-01
 1.000000e+00  9.118675e-01
 1.000000e+00  8.943014e-01
 1.000000e+00  8.767683e-01
 1.000000e+00  8.592735e-01
 1.000000e+00  8.418226e-01
 1.000000e+00  8.244209e-01
 1.000000e+00  8.070739e-01
 1.000000e+00  7.897871e-01
 1.000000e+00  7.725657e-01
 1.000000e+00  7.554151e-01
 1.000000e+00  7.383407e-01
 1.000000e+00  7.213479e-01
 1.000000e+00  7.044418e-01
 1.000000e+00  6.876278e-01
 1.000000e+00  6.709111e-01
 1.000000e+00  6.542969e-01
 1.000000e+00  6.377904e-01
 1.000000e+00  6.213968e-01
 1.000000e+00  6.051210e-01
 1.000000e+00  5.889683e-01
 1.000000e+00  5.729436e-01
 1.000000e+00  5.570519e-01
 1.000000e+00  5.412982e-01
 1.000000e+00  5.256873e-01
 1.000000e+00  5.102243e-01
 1.000000e+00  4.949137e-01
 1.000000e+00  4.797606e-01
 1.000000e+00  4.647694e-01
 1.000000e+00  4.499450e-01
 1.000000e+00  4.352919e-01
 1.000000e+00  4.208147e-01
 1.000000e+00  4.065180e-01
 1.000000e+00  3.924061e-01
 1.000000e+00  3.784834e-01
 1.000000e+00  3.647544e-01
 1.000000e+00  3.512232e-01
 1.000000e+00  3.378942e-01
 1.000000e+00  3.247713e-01
 1.000000e+00  3.118588e-01
 1.000000e+00  2.991607e-01
 1.000000e+00  2.866808e-01
 1.000000e+00  2.744232e-01
 1.000000e+00  2.623915e-01
 1.000000e+00  2.505897e-01
 1.000000e+00  2.390212e-01
 1.000000e+00  2.276898e-01
 1.000000e+00  2.165990e-01
 1.000000e+00  2.057522e-01
 1.000000e+00  1.951528e-01
 1.000000e+00  1.848041e-01
 1.000000e+00  1.747093e-01
 1.000000e+00  1.648716e-01
 1.000000e+00  1.552940e-01
 1.000000e+00  1.459796e-01
 1.000000e+00  1.369311e-01
 1.000000e+00  1.281515e-01
 1.000000e+00  1.196435e-01
 1.000000e+00  1.114098e-01
 1.000000e+00  1.034528e-01
 1.000000e+00  9.577503e-02
 1.000000e+00  8.837896e-02
 1.000000e+00  8.126686e-02
 1.000000e+00  7.444093e-02
 1.000000e+00  6.790331e-02
 1.000000e+00  6.165604e-02
 1.000000e+00  5.570105e-02
 1.000000e+00  5.004020e-02
 1.000000e+00  4.467526e-02
 1.000000e+00  3.960789e-02
 1.000000e+00  3.483968e-02
 1.000000e+00  3.037212e-02
 1.000000e+00  2.620658e-02
 1.000000e+00  2.234438e-02
 1.000000e+00  1.878670e-02
 1.000000e+00  1.553467e-02
 1.000000e+00  1.258929e-02
 1.000000e+00  9.951489e-03
 1.000000e+00  7.622077e-03
 1.000000e+00  5.601784e-03
 1.000000e+00  3.891239e-03
 1.000000e+00  2.490975e-03
 1.000000e+00  1.401428e-03
 1.000000e+00  6.229377e-04
 1.000000e+00  1.557466e-04
 1.000000e+00  0.000000e+00

 1.000000e+00  1.000000e+00
 1.000000e+00  9.823515e-01
 1.000000e+00  9.647085e-01
 1.000000e+00  9.470765e-01
 1.000000e+00  9.294610e-01
 1.000000e+00  9.118675e-01
 1.000000e+00  8.943014e-01
 1.000000e+00  8.767683e-01
 1.000000e+00  8.592735e-01
 1.000000e+00  8.418226e-01
 1.000000e+00  8.244209e-01
 1.000000e+00  8.070739e-01
 1.000000e+00  7.897871e-01
 1.000000e+00  7.725657e-01
 1.000000e+00  7.554151e-01
 1.000000e+00  7.383407e-01
 1.000000e+00  7.213479e-01
 1.000000e+00  7.044418e-01
 1.000000e+00  6.876278e-01
 1.000000e+00  6.709111e-01
 1.000000e+00  6.542969e-01
 1.000000e+00  6.377904e-01
 1.000000e+00  6.213968e-01
 1.000000e+00  6.051210e-01
 1.000000e+00  5.889683e-01
 1.000000e+00  5.729436e-01
 1.000000e+00  5.570519e-01
 1.000000e+00  5.412982e-01
 1.000000e+00  5.256873e-01
 1.000000e+00  5.102243e-01
 1.000000e+00  4.949137e-01
 1.000000e+00  4.797606e-01
 1.000000e+00  4.647694e-01
 1.000000e+00  4.499450e-01
 1.000000e+00  4.352919e-01
 1.000000e+00  4.208147e-01
 1.000000e+00  4.065180e-01
 1.000000e+00  3.924061e-01
 1.000000e+00  3.784834e-01
 1.000000e+00  3.647544e-01
 1.000000e+00  3.512232e-01
 1.000000e+00  3.378942e-01
 1.000000e+00  3.247713e-01
 1.000000e+00  3.118588e-01
 1.000000e+00  2.991607e-01
 1.000000e+00  2.866808e-01
 1.000000e+00  2.744232e-01
 1.000000e+00  2.623915e-01
 1.000000e+00  2.505897e-01
 1.000000e+00  2.390212e-01
 1.000000e+00  2.276898e-01
 1.000000e+00  2.165990e-01
 1.000000e+00  2.057522e-01
 1.000000e+00  1.951528e-01
 1.000000e+00  1.848041e-01
 1.000000e+00  1.747093e-01
 1.000000e+00  1.648716e-01
 1.000000e+00  1.552940e-01
 1.000000e+00  1.459796e-01
 1.000000e+00  1.369311e-01
 1.000000e+00  1.281515e-01
 1.000000e+00  1.196435e-01
 1.000000e+00  1.114098e-01
 1.000000e+00  1.034528e-01
 1.000000e+00  9.577503e-02
 1.000000e+00  8.837896e-02
 1.000000e+00  8.126686e-02
 1.000000e+00  7.444093e-02
 1.000000e+00  6.790331e-02
 1.000000e+00  6.165604e-02
 1.000000e+00  5.570105e-02
 1.000000e+00  5.004020e-02
 1.000000e+00  4.467526e-02
 1.000000e+00  3.960789e-02
 1.000000e+00  3.483968e-02
 1.000000e+00  3.037212e-02
 1.000000e+00  2.620658e-02
 1.000000e+00  2.234438e-02
 1.000000e+00  1.878670e-02
 1.000000e+00  1.553467e-02
 1.000000e+00  1.258929e-02
 1.000000e+00  9.951489e-03
 1.000000e+00  7.622077e-03
 1.000000e+00  5.601784e-03
 1.000000e+00  3.891239e-03
 1.000000e+00  2.490975e-03
 1.000000e+00  1.401428e-03
 1.000000e+00  6.229377e-04
 1.000000e+00  1.557466e-04
 1.000000e+00  0.000000e+00

 1.000000e+00  1.000000e+00
 1.000000e+00  9.823515e-01
 1.000000e+00  9.647085e-01
 1.000000e+00  9.470765e-01
 1.000000e+00  9.294610e-01
 1.000000e+00  9.118675e-01
 1.000000e+00  8.943014e-01
 1.000000e+00  8.767683e-01
 1.000000e+00  8.592735e-01
 1.000000e+00  8.418226e-01
 1.000000e+00  8.244209e-01
 1.000000e+00  8.070739e-01
 1.000000e+00  7.897871e-01
 1.000000e+00  7.725657e-01
 1.000000e+00  7.554151e-01
 1.000000e+00  7.383407e-01
 1.000000e+00  7.213479e-01
 1.000000e+00  7.044418e-01
 1.000000e+00  6.876278e-01
 1.000000e+00  6.709111e-01
 1.000000e+00  6.542969e-01
 1.000000e+00  6.377904e-01
 1.000000e+00  6.213968e-01
 1.000000e+00  6.051210e-01
 1.000000e+00  5.889683e-01
 1.000000e+00  5.729436e-01
 1.000000e+00  5.570519e-01
 1.000000e+00  5.412982e-01
 1.000000e+00  5.256873e-01
 1.000000e+00  5.102243e-01
 1.000000e+00  4.949137e-01
 1.000000e+00  4.797606e-01
 1.000000e+00  4.647694e-01
 1.000000e+00  4.499450e-01
 1.000000e+00  4.352919e-01
 1.000000e+00  4.208147e-01
 1.000000e+00  4.065180e-01
 1.000000e+00  3.924061e-01
 1.000000e+00  3.784834e-01
 1.000000e+00  3.647544e-01
 1.000000e+00  3.512232e-01
 1.000000e+00  3.378942e-01
 1.000000e+00  3.247713e-01
 1.000000e+00  3.118588e-01
 1.000000e+00  2.991607e-01
 1.000000e+00  2.866808e-01
 1.000000e+00  2.744232e-01
 1.000000e+00  2.623915e-01
 1.000000e+00  2.505897e-01
 1.000000e+00  2.390212e-01
 1.000000e+00  2.276898e-01
 1.000000e+00  2.165990e-01
 1.000000e+00  2.057522e-01
 1.000000e+00  1.951528e-01
 1.000000e+00  1.848041e-01
 1.000000e+00  1.747093e-01
 1.000000e+00  1.648716e-01
 1.000000e+00  1.552940e-01
 1.000000e+00  1.459796e-01
 1.000000e+00  1.369311e-01
 1.000000e+00  1.281515e-01
 1.000000e+00  1.196435e-01
 1.000000e+00  1.114098e-01
 1.000000e+00  1.034528e-01
 1.000000e+00  9.577503e-02
 1.000000e+00  8.837896e-02
 1.000000e+00  8.126686e-02
 1.000000e+00  7.444093e-02
 1.000000e+00  6.790331e-02
 1.000000e+00  6.165604e-02
 1.000000e+00  5.570105e-02
 1.000000e+00  5.004020e-02
 1.000000e+00  4.467526e-02
 1.000000e+00  3.960789e-02
 1.000000e+00  3.483968e-02
 1.000000e+00  3.037212e-02
 1.000000e+00  2.620658e-02
 1.000000e+00  2.234438e-02
 1.000000e+00  1.878670e-02
 1.000000e+00  1.553467e-02
 1.000000e+00  1.258929e-02
 1.000000e+00  9.951489e-03
 1.000000e+00  7.622077e-03
 1.000000e+00  5.601784e-03
 1.000000e+00  3.891239e-03
 1.000000e+00  2.490975e-03
 1.000000e+00  1.401428e-03
 1.000000e+00  6.229377e-04
 1.000000e+00  1.557466e-04
 1.000000e+00  0.000000e+00

 1.000000e+00  1.000000e+00
 1.000000e+00  9.823515e-01
 1.000000e+00  9.647085e-01
 1.000000e+00  9.470765e-01
 1.000000e+00  9.294610e-01
 1.000000e+00  9.118675e-01
 1.000000e+00  8.943014e-01
 1.000000e+00  8.767683e-01
 1.000000e+00  8.592735e-01
 1.000000e+00  8.418226e-01
 1.000000e+00  8.244209e-01
 1.000000e+00  8.070739e-01
 1.000000e+00  7.897871e-01
 1.000000e+00  7.725657e-01
 1.000000e+00  7.554151e-01
 1.000000e+00  7.383407e-01
 1.000000e+00  7.213479e-01
 1.000000e+00  7.044418e-01
 1.000000e+00  6.876278e-01
 1.000000e+00  6.709111e-01
 1.000000e+00  6.542969e-01
 1.000000e+00  6.377904e-01
 1.000000e+00  6.213968e-01
 1.000000e+00  6.051210e-01
 1.000000e+00  5.889683e-01
 1.000000e+00  5.729436e-01
 1.000000e+00  5.570519e-01
 1.000000e+00  5.412982e-01
 1.000000e+00  5.256873e-01
 1.000000e+00  5.102243e-01
 1.000000e+00  4.949137e-01
 1.000000e+00  4.797606e-01
 1.000000e+00  4.647694e-01
 1.000000e+00  4.499450e-01
 1.000000e+00  4.352919e-01
 1.000000e+00  4.208147e-01
 1.000000e+00  4.065180e-01
 1.000000e+00  3.924061e-01
 1.000000e+00  3.784834e-01
 1.000000e+00  3.647544e-01
 1.000000e+00  3.512232e-01
 1.000000e+00  3.378942e-01
 1.000000e+00  3.247713e-01
 1.000000e+00  3.118588e-01
 1.000000e+00  2.991607e-01
 1.000000e+00  2.866808e-01
 1.000000e+00  2.744232e-01
 1.000000e+00  2.623915e-01
 1.000000e+00  2.505897e-01
 1.000000e+00  2.390212e-01
 1.000000e+00  2.276898e-01
 1.000000e+00  2.165990e-01
 1.000000e+00  2.057522e-01
 1.000000e+00  1.951528e-01
 1.000000e+00  1.848041e-01
 1.000000e+00  1.747093e-01
 1.000000e+00  1.648716e-01
 1.000000e+00  1.552940e-01
 1.000000e+00  1.459796e-01
 1.000000e+00  1.369311e-01
 1.000000e+00  1.281515e-01
 1.000000e+00  1.196435e-01
 1.000000e+00  1.114098e-01
 1.000000e+00  1.034528e-01
 1.000000e+00  9.577503e-02
 1.000000e+00  8.837896e-02
 1.000000e+00  8.126686e-02
 1.000000e+00  7.444093e-02
 1.000000e+00  6.790331e-02
 1.000000e+00  6.165604e-02
 1.000000e+00  5.570105e-02
 1.000000e+00  5.004020e-02
 1.000000e+00  4.467526e-02
 1.000000e+00  3.960789e-02
 1.000000e+00  3.483968e-02
 1.000000e+00  3.037212e-02
 1.000000e+00  2.620658e-02
 1.000000e+00  2.234438e-02
 1.000000e+00  1.878670e-02
 1.000000e+00  1.553467e-02
 1.000000e+00  1.258929e-02
 1.000000e+00  9.951489e-03
 1.000000e+00  7.622077e-03
 1.000000e+00  5.601784e-03
 1.000000e+00  3.891239e-03
 1.000000e+00  2.490975e-03
 1.000000e+00  1.401428e-03
 1.000000e+00  6.229377e-04
 1.000000e+00  1.557466e-04
 1.000000e+00  0.000000e+00

 1.000000e+00  1.000000e+00
 1.000000e+00  9.823515e-01
 1.000000e+00  9.647085e-01
 1.000000e+00  9.470765e-01
 1.000000e+00  9.294610e-01
 1.000000e+00  9.118675e-01
 1.000000e+00  8.943014e-01
 1.000000e+00  8.767683e-01
 1.000000e+00  8.592735e-01
 1.000000e+00  8.418226e-01
 1.000000e+00  8.244209e-01
 1.000000e+00  8.070739e-01
 1.000000e+00  7.897871e-01
 1.000000e+00  7.725657e-01
 1.000000e+00  7.554151e-01
 1.000000e+00  7.383407e-01
 1.000000e+00  7.213479e-01
 1.000000e+00  7.044418e-01
 1.000000e+00  6.876278e-01
 1.000000e+00  6.709111e-01
 1.000000e+00  6.542969e-01
 1.000000e+00  6.377904e-01
 1.000000e+00  6.213968e-01
 1.000000e+00  6.051210e-01
 1.000000e+00  5.889683e-01
 1.000000e+00  5.729436e-01
 1.000000e+00  5.570519e-01
 1.000000e+00  5.412982e-01
 1.000000e+00  5.256873e-01
 1.000000e+00  5.102243e-01
 1.000000e+00  4.949137e-01
 1.000000e+00  4.797606e-01
 1.000000e+00  4.647694e-01
 1.000000e+00  4.499450e-01
 1.000000e+00  4.352919e-01
 1.000000e+00  4.208147e-01
 1.000000e+00  4.065180e-01
 1.000000e+00  3.924061e-01
 1.000000e+00  3.784834e-01
 1.000000e+00  3.647544e-01
 1.000000e+00  3.512232e-01
 1.000000e+00  3.378942e-01
 1.000000e+00  3.247713e-01
 1.000000e+00  3.118588e-01
 1.000000e+00  2.991607e-01
 1.000000e+00  2.866808e-01
 1.000000e+00  2.744232e-01
 1.000000e+00  2.623915e-01
 1.000000e+00  2.505897e-01
 1.000000e+00  2.390212e-01
 1.000000e+00  2.276898e-01
 1.000000e+00  2.165990e-01
 1.000000e+00  2.057522e-01
 1.000000e+00  1.951528e-01
 1.000000e+00  1.848041e-01
 1.000000e+00  1.747093e-01
 1.000000e+00  1.648716e-01
 1.000000e+00  1.552940e-01
 1.000000e+00  1.459796e-01
 1.000000e+00  1.369311e-01
 1.000000e+00  1.281515e-01
 1.000000e+00  1.196435e-01
 1.000000e+00  1.114098e-01
 1.000000e+00  1.034528e-01
 1.000000e+00  9.577503e-02
 1.000000e+00  8.837896e-02
 1.000000e+00  8.126686e-02
 1.000000e+00  7.444093e-02
 1.000000e+00  6.790331e-02
 1.000000e+00  6.165604e-02
 1.000000e+00  5.570105e-02
 1.000000e+00  5.004020e-02
 1.000000e+00  4.467526e-02
 1.000000e+00  3.960789e-02
 1.000000e+00  3.483968e-02
 1.000000e+00  3.037212e-02
 1.000000e+00  2.620658e-02
 1.000000e+00  2.234438e-02
 1.000000e+00  1.878670e-02
 1.000000e+00  1.553467e-02
 1.000000e+00  1.258929e-02
 1.000000e+00  9.951489e-03
 1.000000e+00  7.622077e-03
 1.000000e+00  5.601784e-03
 1.000000e+00  3.891239e-03
 1.000000e+00  2.490975e-03
 1.000000e+00  1.401428e-03
 1.000000e+00  6.229377e-04
 1.000000e+00  1.557466e-04
 1.000000e+00  0.000000e+00

 1.000000e+00  1.000000e+00
 1.000000e+00  9.823515e-01
 1.000000e+00  9.647085e-01
 1.000000e+00  9.470765e-01
 1.000000e+00  9.294610e-01
 1.000000e+00  9.118675e-01
 1.000000e+00  8.943014e-01
 1.000000e+00  8.767683e-01
 1.000000e+00  8.592735e-01
 1.000000e+00  8.418226e-01
 1.000000e+00  8.244209e-01
 1.000000e+00  8.070739e-01
 1.000000e+00  7.897871e-01
 1.000000e+00  7.725657e-01
 1.000000e+00  7.554151e-01
 1.000000e+00  7.383407e-01
 1.000000e+00  7.213479e-01
 1.000000e+00  7.044418e-01
 1.000000e+00  6.876278e-01
 1.000000e+00  6.709111e-01
 1.000000e+00  6.542969e-01
 1.000000e+00  6.377904e-01
 1.000000e+00  6.213968e-01
 1.000000e+00  6.051210e-01
 1.000000e+00  5.889683e-01
 1.000000e+00  5.729436e-01
 1.000000e+00  5.570519e-01
 1.000000e+00  5.412982e-01
 1.000000e+00  5.256873e-01
 1.000000e+00  5.102243e-01
 1.000000e+00  4.949137e-01
 1.000000e+00  4.797606e-01
 1.000000e+00  4.647694e-01
 1.000000e+00  4.499450e-01
 1.000000e+00  4.352919e-01
 1.000000e+00  4.208147e-01
 1.000000e+00  4.065180e-01
 1.000000e+00  3.924061e-01
 1.000000e+00  3.784834e-01
 1.000000e+00  3.647544e-01
 1.000000e+00  3.512232e-01
 1.000000e+00  3.378942e-01
 1.000000e+00  3.247713e-01
 1.000000e+00  3.118588e-01
 1.000000e+00  2.991607e-01
 1.000000e+00  2.866808e-01
 1.000000e+00  2.744232e-01
 1.000000e+00  2.623915e-01
 1.000000e+00  2.505897e-01
 1.000000e+00  2.390212e-01
 1.000000e+00  2.276898e-01
 1.000000e+00  2.165990e-01
 1.000000e+00  2.057522e-01
 1.000000e+00  1.951528e-01
 1.000000e+00  1.848041e-01
 1.000000e+00  1.747093e-01
 1.000000e+00  1.648716e-01
 1.000000e+00  1.552940e-01
 1.000000e+00  1.459796e-01
 1.000000e+00  1.369311e-01
 1.000000e+00  1.281515e-01
 1.000000e+00  1.196435e-01
 1.000000e+00  1.114098e-01
 1.000000e+00  1.034528e-01
 1.000000e+00  9.577503e-02
 1.000000e+00  8.837896e-02
 1.000000e+00  8.126686e-02
 1.000000e+00  7.444093e-02
 1.000000e+00  6.790331e-02
 1.000000e+00  6.165604e-02
 1.000000e+00  5.570105e-02
 1.000000e+00  5.004020e-02
 1.000000e+00  4.467526e-02
 1.000000e+00  3.960789e-02
 1.000000e+00  3.483968e-02
 1.000000e+00  3.037212e-02
 1.000000e+00  2.620658e-02
 1.000000e+00  2.234438e-02
 1.000000e+00  1.878670e-02
 1.000000e+00  1.553467e-02
 1.000000e+00  1.258929e-02
 1.000000e+00  9.951489e-03
 1.000000e+00  7.622077e-03
 1.000000e+00  5.601784e-03
 1.000000e+00  3.891239e-03
 1.000000e+00  2.490975e-03
 1.000000e+00  1.401428e-03
 1.000000e+00  6.229377e-04
 1.000000e+00  1.557466e-04
 1.000000e+00  0.000000e+00

 1.000000e+00  1.000000e+00
 1.000000e+00  9.823515e-01
 1.000000e+00  9.647085e-01
 1.000000e+00  9.470765e-01
 1.000000e+00  9.294610e-01
 1.000000e+00  9.118675e-01
 1.000000e+00  8.943014e-01
 1.000000e+00  8.767683e-01
 1.000000e+00  8.592735e-01
 1.000000e+00  8.418226e-01
 1.000000e+00  8.244209e-01
 1.000000e+00  8.070739e-01
 1.000000e+00  7.897871e-01
 1.000000e+00  7.725657e-01
 1.000000e+00  7.554151e-01
 1.000000e+00  7.383407e-01
 1.000000e+00  7.213479e-01
 1.000000e+00  7.044418e-01
 1.000000e+00  6.876278e-01
 1.000000e+00  6.709111e-01
 1.000000e+00  6.542969e-01
 1.000000e+00  6.377904e-01
 1.000000e+00  6.213968e-01
 1.000000e+00  6.051210e-01
 1.000000e+00  5.889683e-01
 1.000000e+00  5.729436e-01
 1.000000e+00  5.570519e-01
 1.000000e+00  5.412982e-01
 1.000000e+00  5.256873e-01
 1.000000e+00  5.102243e-01
 1.000000e+00  4.949137e-01
 1.000000e+00  4.797606e-01
 1.000000e+00  4.647694e-01
 1.000000e+00  4.499450e-01
 1.000000e+00  4.352919e-01
 1.000000e+00  4.208147e-01
 1.000000e+00  4.065180e-01
 1.000000e+00  3.924061e-01
 1.000000e+00  3.784834e-01
 1.000000e+00  3.647544e-01
 1.000000e+00  3.512232e-01
 1.000000e+00  3.378942e-01
 1.000000e+00  3.247713e-01
 1.000000e+00  3.118588e-01
 1.000000e+00  2.991607e-01
 1.000000e+00  2.866808e-01
 1.000000e+00  2.744232e-01
 1.000000e+00  2.623915e-01
 1.000000e+00  2.505897e-01
 1.000000e+00  2.390212e-01
 1.000000e+00  2.276898e-01
 1.000000e+00  2.165990e-01
 1.000000e+00  2.057522e-01
 1.000000e+00  1.951528e-01
 1.000000e+00  1.848041e-01
 1.000000e+00  1.747093e-01
 1.000000e+00  1.648716e-01
 1.000000e+00  1.552940e-01
 1.000000e+00  1.459796e-01
 1.000000e+00  1.369311e-01
 1.000000e+00  1.281515e-01
 1.000000e+00  1.196435e-01
 1.000000e+00  1.114098e-01
 1.000000e+00  1.034528e-01
 1.000000e+00  9.577503e-02
 1.000000e+00  8.837896e-02
 1.000000e+00  8.126686e-02
 1.000000e+00  7.444093e-02
 1.000000e+00  6.790331e-02
 1.000000e+00  6.165604e-02
 1.000000e+00  5.570105e-02
 1.000000e+00  5.004020e-02
 1.000000e+00  4.467526e-02
 1.000000e+00  3.960789e-02
 1.000000e+00  3.483968e-02
 1.000000e+00  3.037212e-02
 1.000000e+00  2.620658e-02
 1.000000e+00  2.234438e-02
 1.000000e+00  1.878670e-02
 1.000000e+00  1.553467e-02
 1.000000e+00  1.258929e-02
 1.000000e+00  9.951489e-03
 1.000000e+00  7.622077e-03
 1.000000e+00  5.601784e-03
 1.000000e+00  3.891239e-03
 1.000000e+00  2.490975e-03
 1.000000e+00  1.401428e-03
 1.000000e+00  6.229377e-04
 1.000000e+00  1.557466e-04
 1.000000e+00  0.000000e+00

 1.000000e+00  1.000000e+00
 1.000000e+00  9.823515e-01
 1.000000e+00  9.647085e-01
 1.000000e+00  9.470765e-01
 1.000000e+00  9.294610e-01
 1.000000e+00  9.118675e-01
 1.000000e+00  8.943014e-01
 1.000000e+00  8.767683e-01
 1.000000e+00  8.592735e-01
 1.000000e+00  8.418226e-01
 1.000000e+00  8.244209e-01
 1.000000e+00  8.070739e-01
 1.000000e+00  7.897871e-01
 1.000000e+00  7.725657e-01
 1.000000e+00  7.554151e-01
 1.000000e+00  7.383407e-01
 1.000000e+00  7.213479e-01
 1.000000e+00  7.044418e-01
 1.000000e+00  6.876278e-01
 1.000000e+00  6.709111e-01
 1.000000e+00  6.542969e-01
 1.000000e+00  6.377904e-01
 1.000000e+00  6.213968e-01
 1.000000e+00  6.051210e-01
 1.000000e+00  5.889683e-01
 1.000000e+00  5.729436e-01
 1.000000e+00  5.570519e-01
 1.000000e+00  5.412982e-01
 1.000000e+00  5.256873e-01
 1.000000e+00  5.102243e-01
 1.000000e+00  4.949137e-01
 1.000000e+00  4.797606e-01
 1.000000e+00  4.647694e-01
 1.000000e+00  4.499450e-01
 1.000000e+00  4.352919e-01
 1.000000e+00  4.208147e-01
 1.000000e+00  4.065180e-01
 1.000000e+00  3.924061e-01
 1.000000e+00  3.784834e-01
 1.000000e+00  3.647544e-01
 1.000000e+00  3.512232e-01
 1.000000e+00  3.378942e-01
 1.000000e+00  3.247713e-01
 1.000000e+00  3.118588e-01
 1.000000e+00  2.991607e-01
 1.000000e+00  2.866808e-01
 1.000000e+00  2.744232e-01
 1.000000e+00  2.623915e-01
 1.000000e+00  2.505897e-01
 1.000000e+00  2.390212e-01
 1.000000e+00  2.276898e-01
 1.000000e+00  2.165990e-01
 1.000000e+00  2.057522e-01
 1.000000e+00  1.951528e-01
 1.000000e+00  1.848041e-01
 1.000000e+00  1.747093e-01
 1.000000e+00  1.648716e-01
 1.000000e+00  1.552940e-01
 1.000000e+00  1.459796e-01
 1.000000e+00  1.369311e-01
 1.000000e+00  1.281515e-01
 1.000000e+00  1.196435e-01
 1.000000e+00  1.114098e-01
 1.000000e+00  1.034528e-01
 1.000000e+00  9.577503e-02
 1.000000e+00  8.837896e-02
 1.000000e+00  8.126686e-02
 1.000000e+00  7.444093e-02
 1.000000e+00  6.790331e-02
 1.000000e+00  6.165604e-02
 1.000000e+00  5.570105e-02
 1.000000e+00  5.004020e-02
 1.000000e+00  4.467526e-02
 1.000000e+00  3.960789e-02
 1.000000e+00  3.483968e-02
 1.000000e+00  3.037212e-02
 1.000000e+00  2.620658e-02
 1.000000e+00  2.234438e-02
 1.000000e+00  1.878670e-02
 1.000000e+00  1.553467e-02
 1.000000e+00  1.258929e-02
 1.000000e+00  9.951489e-03
 1.000000e+00  7.622077e-03
 1.000000e+00  5.601784e-03
 1.000000e+00  3.891239e-03
 1.000000e+00  2.490975e-03
 1.000000e+00  1.401428e-03
 1.000000e+00  6.229377e-04
 1.000000e+00  1.557466e-04
 1.000000e+00  0.000000e+00

 1.000000e+00  1.000000e+00
 1.000000e+00  9.823515e-01
 1.000000e+00  9.647085e-01
 1.000000e+00  9.470765e-01
 1.000000e+00  9.294610e-01
 1.000000e+00  9.118675e-01
 1.000000e+00  8.943014e-01
 1.000000e+00  8.767683e-01
 1.000000e+00  8.592735e-01
 1.000000e+00  8.418226e-01
 1.000000e+00  8.244209e-01
 1.000000e+00  8.070739e-01
 1.000000e+00  7.897871e-01
 1.000000e+00  7.725657e-01
 1.000000e+00  7.554151e-01
 1.000000e+00  7.383407e-01
 1.000000e+00  7.213479e-01
 1.000000e+00  7.044418e-01
 1.000000e+00  6.876278e-01
 1.000000e+00  6.709111e-01
 1.000000e+00  6.542969e-01
 1.000000e+00  6.377904e-01
 1.000000e+00  6.213968e-01
 1.000000e+00  6.051210e-01
 1.000000e+00  5.889683e-01
 1.000000e+00  5.729436e-01
 1.000000e+00  5.570519e-01
 1.000000e+00  5.412982e-01
 1.000000e+00  5.256873e-01
 1.000000e+00  5.102243e-01
 1.000000e+00  4.949137e-01
 1.000000e+00  4.797606e-01
 1.000000e+00  4.647694e-01
 1.000000e+00  4.499450e-01
 1.000000e+00  4.352919e-01
 1.000000e+00  4.208147e-01
 1.000000e+00  4.065180e-01
 1.000000e+00  3.924061e-01
 1.000000e+00  3.784834e-01
 1.000000e+00  3.647544e-01
 1.000000e+00  3.512232e-01
 1.000000e+00  3.378942e-01
 1.000000e+00  3.247713e-01
 1.000000e+00  3.118588e-01
 1.000000e+00  2.991607e-01
 1.000000e+00  2.866808e-01
 1.000000e+00  2.744232e-01
 1.000000e+00  2.623915e-01
 1.000000e+00  2.505897e-01
 1.000000e+00  2.390212e-01
 1.000000e+00  2.276898e-01
 1.000000e+00  2.165990e-01
 1.000000e+00  2.057522e-01
 1.000000e+00  1.951528e-01
 1.000000e+00  1.848041e-01
 1.000000e+00  1.747093e-01
 1.000000e+00  1.648716e-01
 1.000000e+00  1.552940e-01
 1.000000e+00  1.459796e-01
 1.000000e+00  1.369311e-01
 1.000000e+00  1.281515e-01
 1.000000e+00  1.196435e-01
 1.000000e+00  1.114098e-01
 1.000000e+00  1.034528e-01
 1.000000e+00  9.577503e-02
 1.000000e+00  8.837896e-02
 1.000000e+00  8.126686e-02
 1.000000e+00  7.444093e-02
 1.000000e+00  6.790331e-02
 1.000000e+00  6.165604e-02
 1.000000e+00  5.570105e-02
 1.000000e+00  5.004020e-02
 1.000000e+00  4.467526e-02
 1.000000e+00  3.960789e-02
 1.000000e+00  3.483968e-02
 1.000000e+00  3.037212e-02
 1.000000e+00  2.620658e-02
 1.000000e+00  2.234438e-02
 1.000000e+00  1.878670e-02
 1.000000e+00  1.553467e-02
 1.000000e+00  1.258929e-02
 1.000000e+00  9.951489e-03
 1.000000e+00  7.622077e-03
 1.000000e+00  5.601784e-03
 1.000000e+00  3.891239e-03
 1.000000e+00  2.490975e-03
 1.000000e+00  1.401428e-03
 1.000000e+00  6.229377e-04
 1.000000e+00  1.557466e-04
 1.000000e+00  0.000000e+00

 1.000000e+00  1.000000e+00
 1.000000e+00  9.823515e-01
 1.000000e+00  9.647085e-01
 1.000000e+00  9.470765e-01
 1.000000e+00  9.294610e-01
 1.000000e+00  9.118675e-01
 1.000000e+00  8.943014e-01
 1.000000e+00  8.767683e-01
 1.000000e+00  8.592735e-01
 1.000000e+00  8.418226e-01
 1.000000e+00  8.244209e-01
 1.000000e+00  8.070739e-01
 1.000000e+00  7.897871e-01
 1.000000e+00  7.725657e-01
 1.000000e+00  7.554151e-01
 1.000000e+00  7.383407e-01
 1.000000e+00  7.213479e-01
 1.000000e+00  7.044418e-01
 1.000000e+00  6.876278e-01
 1.000000e+00  6.709111e-01
 1.000000e+00  6.542969e-01
 1.000000e+00  6.377904e-01
 1.000000e+00  6.213968e-01
 1.000000e+00  6.051210e-01
 1.000000e+00  5.889683e-01
 1.000000e+00  5.729436e-01
 1.000000e+00  5.570519e-01
 1.000000e+00  5.412982e-01
 1.000000e+00  5.256873e-01
 1.000000e+00  5.102243e-01
 1.000000e+00  4.949137e-01
 1.000000e+00  4.797606e-01
 1.000000e+00  4.647694e-01
 1.000000e+00  4.499450e-01
 1.000000e+00  4.352919e-01
 1.000000e+00  4.208147e-01
 1.000000e+00  4.065180e-01
 1.000000e+00  3.924061e-01
 1.000000e+00  3.784834e-01
 1.000000e+00  3.647544e-01
 1.000000e+00  3.512232e-01
 1.000000e+00  3.378942e-01
 1.000000e+00  3.247713e-01
 1.000000e+00  3.118588e-01
 1.000000e+00  2.991607e-01
 1.000000e+00  2.866808e-01
 1.000000e+00  2.744232e-01
 1.000000e+00  2.623915e-01
 1.000000e+00  2.505897e-01
 1.000000e+00  2.390212e-01
 1.000000e+00  2.276898e-01
 1.000000e+00  2.165990e-01
 1.000000e+00  2.057522e-01
 1.000000e+00  1.951528e-01
 1.000000e+00  1.848041e-01
 1.000000e+00  1.747093e-01
 1.000000e+00  1.648716e-01
 1.000000e+00  1.552940e-01
 1.000000e+00  1.459796e-01
 1.000000e+00  1.369311e-01
 1.000000e+00  1.281515e-01
 1.000000e+00  1.196435e-01
 1.000000e+00  1.114098e-01
 1.000000e+00  1.034528e-01
 1.000000e+00  9.577503e-02
 1.000000e+00  8.837896e-02
 1.000000e+00  8.126686e-02
 1.000000e+00  7.444093e-02
 1.000000e+00  6.790331e-02
 1.000000e+00  6.165604e-02
 1.000000e+00  5.570105e-02
 1.000000e+00  5.004020e-02
 1.000000e+00  4.467526e-02
 1.000000e+00  3.960789e-02
 1.000000e+00  3.483968e-02
 1.000000e+00  3.037212e-02
 1.000000e+00  2.620658e-02
 1.000000e+00  2.234438e-02
 1.000000e+00  1.878670e-02
 1.000000e+00  1.553467e-02
 1.000000e+00  1.258929e-02
 1.000000e+00  9.951489e-03
 1.000000e+00  7.622077e-03
 1.000000e+00  5.601784e-03
 1.000000e+00  3.891239e-03
 1.000000e+00  2.490975e-03
 1.000000e+00  1.401428e-03
 1.000000e+00  6.229377e-04
 1.000000e+00  1.557466e-04
 1.000000e+00  0.000000e+00

 1.000000e+00  1.000000e+00
 1.000000e+00  9.823515e-01
 1.000000e+00  9.647085e-01
 1.000000e+00  9.470765e-01
 1.000000e+00  9.294610e-01
 1.000000e+00  9.118675e-01
 1.000000e+00  8.943014e-01
 1.000000e+00  8.767683e-01
 1.000000e+00  8.592735e-01
 1.000000e+00  8.418226e-01
 1.000000e+00  8.244209e-01
 1.000000e+00  8.070739e-01
 1.000000e+00  7.897871e-01
 1.000000e+00  7.725657e-01
 1.000000e+00  7.554151e-01
 1.000000e+00  7.383407e-01
 1.000000e+00  7.213479e-01
 1.000000e+00  7.044418e-01
 1.000000e+00  6.876278e-01
 1.000000e+00  6.709111e-01
 1.000000e+00  6.542969e-01
 1.000000e+00  6.377904e-01
 1.000000e+00  6.213968e-01
 1.000000e+00  6.051210e-01
 1.000000e+00  5.889683e-01
 1.000000e+00  5.729436e-01
 1.000000e+00  5.570519e-01
 1.000000e+00  5.412982e-01
 1.000000e+00  5.256873e-01
 1.000000e+00  5.102243e-01
 1.000000e+00  4.949137e-01
 1.000000e+00  4.797606e-01
 1.000000e+00  4.647694e-01
 1.000000e+00  4.499450e-01
 1.000000e+00  4.352919e-01
 1.000000e+00  4.208147e-01
 1.000000e+00  4.065180e-01
 1.000000e+00  3.924061e-01
 1.000000e+00  3.784834e-01
 1.000000e+00  3.647544e-01
 1.000000e+00  3.512232e-01
 1.000000e+00  3.378942e-01
 1.000000e+00  3.247713e-01
 1.000000e+00  3.118588e-01
 1.000000e+00  2.991607e-01
 1.000000e+00  2.866808e-01
 1.000000e+00  2.744232e-01
 1.000000e+00  2.623915e-01
 1.000000e+00  2.505897e-01
 1.000000e+00  2.390212e-01
 1.000000e+00  2.276898e-01
 1.000000e+00  2.165990e-01
 1.000000e+00  2.057522e-01
 1.000000e+00  1.951528e-01
 1.000000e+00  1.848041e-01
 1.000000e+00  1.747093e-01
 1.000000e+00  1.648716e-01
 1.000000e+00  1.552940e-01
 1.000000e+00  1.459796e-01
 1.000000e+00  1.369311e-01
 1.000000e+00  1.281515e-01
 1.000000e+00  1.196435e-01
 1.000000e+00  1.114098e-01
 1.000000e+00  1.034528e-01
 1.000000e+00  9.577503e-02
 1.000000e+00  8.837896e-02
 1.000000e+00  8.126686e-02
 1.000000e+00  7.444093e-02
 1.000000e+00  6.790331e-02
 1.000000e+00  6.165604e-02
 1.000000e+00  5.570105e-02
 1.000000e+00  5.004020e-02
 1.000000e+00  4.467526e-02
 1.000000e+00  3.960789e-02
 1.000000e+00  3.483968e-02
 1.000000e+00  3.037212e-02
 1.000000e+00  2.620658e-02
 1.000000e+00  2.234438e-02
 1.000000e+00  1.878670e-02
 1.000000e+00  1.553467e-02
 1.000000e+00  1.258929e-02
 1.000000e+00  9.951489e-03
 1.000000e+00  7.622077e-03
 1.000000e+00  5.601784e-03
 1.000000e+00  3.891239e-03
 1.000000e+00  2.490975e-03
 1.000000e+00  1.401428e-03
 1.000000e+00  6.229377e-04
 1.000000e+00  1.557466e-04
 1.000000e+00  0.000000e+00

 1.000000e+00  1.000000e+00
 1.000000e+00  9.823515e-01
 1.000000e+00  9.647085e-01
 1.000000e+00  9.470765e-01
 1.000000e+00  9.294610e-01
 1.000000e+00  9.118675e-01
 1.000000e+00  8.943014e-01
 1.000000e+00  8.767683e-01
 1.000000e+00  8.592735e-01
 1.000000e+00  8.418226e-01
 1.000000e+00  8.244209e-01
 1.000000e+00  8.070739e-01
 1.000000e+00  7.897871e-01
 1.000000e+00  7.725657e-01
 1.000000e+00  7.554151e-01
 1.000000e+00  7.383407e-01
 1.000000e+00  7.213479e-01
 1.000000e+00  7.044418e-01
 1.000000e+00  6.876278e-01
 1.000000e+00  6.709111e-01
 1.000000e+00  6.542969e-01
 1.000000e+00  6.377904e-01
 1.000000e+00  6.213968e-01
 1.000000e+00  6.051210e-01
 1.000000e+00  5.889683e-01
 1.000000e+00  5.729436e-01
 1.000000e+00  5.570519e-01
 1.000000e+00  5.412982e-01
 1.000000e+00  5.256873e-01
 1.000000e+00  5.102243e-01
 1.000000e+00  4.949137e-01
 1.000000e+00  4.797606e-01
 1.000000e+00  4.647694e-01
 1.000000e+00  4.499450e-01
 1.000000e+00  4.352919e-01
 1.000000e+00  4.208147e-01
 1.000000e+00  4.065180e-01
 1.000000e+00  3.924061e-01
 1.000000e+00  3.784834e-01
 1.000000e+00  3.647544e-01
 1.000000e+00  3.512232e-01
 1.000000e+00  3.378942e-01
 1.000000e+00  3.247713e-01
 1.000000e+00  3.118588e-01
 1.000000e+00  2.991607e-01
 1.000000e+00  2.866808e-01
 1.000000e+00  2.744232e-01
 1.000000e+00  2.623915e-01
 1.000000e+00  2.505897e-01
 1.000000e+00  2.390212e-01
 1.000000e+00  2.276898e-01
 1.000000e+00  2.165990e-01
 1.000000e+00  2.057522e-01
 1.000000e+00  1.951528e-01
 1.000000e+00  1.848041e-01
 1.000000e+00  1.747093e-01
 1.000000e+00  1.648716e-01
 1.000000e+00  1.552940e-01
 1.000000e+00  1.459796e-01
 1.000000e+00  1.369311e-01
 1.000000e+00  1.281515e-01
 1.000000e+00  1.196435e-01
 1.000000e+00  1.114098e-01
 1.000000e+00  1.034528e-01
 1.000000e+00  9.577503e-02
 1.000000e+00  8.837896e-02
 1.000000e+00  8.126686e-02
 1.000000e+00  7.444093e-02
 1.000000e+00  6.790331e-02
 1.000000e+00  6.165604e-02
 1.000000e+00  5.570105e-02
 1.000000e+00  5.004020e-02
 1.000000e+00  4.467526e-02
 1.000000e+00  3.960789e-02
 1.000000e+00  3.483968e-02
 1.000000e+00  3.037212e-02
 1.000000e+00  2.620658e-02
 1.000000e+00  2.234438e-02
 1.000000e+00  1.878670e-02
 1.000000e+00  1.553467e-02
 1.000000e+00  1.258929e-02
 1.000000e+00  9.951489e-03
 1.000000e+00  7.622077e-03
 1.000000e+00  5.601784e-03
 1.000000e+00  3.891239e-03
 1.000000e+00  2.490975e-03
 1.000000e+00  1.401428e-03
 1.000000e+00  6.229377e-04
 1.000000e+00  1.557466e-04
 1.000000e+00  0.000000e+00

 1.000000e+00  1.000000e+00
 1.000000e+00  9.823515e-01
 1.000000e+00  9.647085e-01
 1.000000e+00  9.470765e-01
 1.000000e+00  9.294610e-01
 1.000000e+00  9.118675e-01
 1.000000e+00  8.943014e-01
 1.000000e+00  8.767683e-01
 1.000000e+00  8.592735e-01
 1.000000e+00  8.418226e-01
 1.000000e+00  8.244209e-01
 1.000000e+00  8.070739e-01
 1.000000e+00  7.897871e-01
 1.000000e+00  7.725657e-01
 1.000000e+00  7.554151e-01
 1.000000e+00  7.383407e-01
 1.000000e+00  7.213479e-01
 1.000000e+00  7.044418e-01
 1.000000e+00  6.876278e-01
 1.000000e+00  6.709111e-01
 1.000000e+00  6.542969e-01
 1.000000e+00  6.377904e-01
 1.000000e+00  6.213968e-01
 1.000000e+00  6.051210e-01
 1.000000e+00  5.889683e-01
 1.000000e+00  5.729436e-01
 1.000000e+00  5.570519e-01
 1.000000e+00  5.412982e-01
 1.000000e+00  5.256873e-01
 1.000000e+00  5.102243e-01
 1.000000e+00  4.949137e-01
 1.000000e+00  4.797606e-01
 1.000000e+00  4.647694e-01
 1.000000e+00  4.499450e-01
 1.000000e+00  4.352919e-01
 1.000000e+00  4.208147e-01
 1.000000e+00  4.065180e-01
 1.000000e+00  3.924061e-01
 1.000000e+00  3.784834e-01
 1.000000e+00  3.647544e-01
 1.000000e+00  3.512232e-01
 1.000000e+00  3.378942e-01
 1.000000e+00  3.247713e-01
 1.000000e+00  3.118588e-01
 1.000000e+00  2.991607e-01
 1.000000e+00  2.866808e-01
 1.000000e+00  2.744232e-01
 1.000000e+00  2.623915e-01
 1.000000e+00  2.505897e-01
 1.000000e+00  2.390212e-01
 1.000000e+00  2.276898e-01
 1.000000e+00  2.165990e-01
 1.000000e+00  2.057522e-01
 1.000000e+00  1.951528e-01
 1.000000e+00  1.848041e-01
 1.000000e+00  1.747093e-01
 1.000000e+00  1.648716e-01
 1.000000e+00  1.552940e-01
 1.000000e+00  1.459796e-01
 1.000000e+00  1.369311e-01
 1.000000e+00  1.281515e-01
 1.000000e+00  1.196435e-01
 1.000000e+00  1.114098e-01
 1.000000e+00  1.034528e-01
 1.000000e+00  9.577503e-02
 1.000000e+00  8.837896e-02
 1.000000e+00  8.126686e-02
 1.000000e+00  7.444093e-02
 1.000000e+00  6.790331e-02
 1.000000e+00  6.165604e-02
 1.000000e+00  5.570105e-02
 1.000000e+00  5.004020e-02
 1.000000e+00  4.467526e-02
 1.000000e+00  3.960789e-02
 1.000000e+00  3.483968e-02
 1.000000e+00  3.037212e-02
 1.000000e+00  2.620658e-02
 1.000000e+00  2.234438e-02
 1.000000e+00  1.878670e-02
 1.000000e+00  1.553467e-02
 1.000000e+00  1.258929e-02
 1.000000e+00  9.951489e-03
 1.000000e+00  7.622077e-03
 1.000000e+00  5.601784e-03
 1.000000e+00  3.891239e-03
 1.000000e+00  2.490975e-03
 1.000000e+00  1.401428e-03
 1.000000e+00  6.229377e-04
 1.000000e+00  1.557466e-04
 1.000000e+00  0.000000e+00

 1.000000e+00  1.000000e+00
 1.000000e+00  9.823515e-01
 1.000000e+00  9.647085e-01
 1.000000e+00  9.470765e-01
 1.000000e+00  9.294610e-01
 1.000000e+00  9.118675e-01
 1.000000e+00  8.943014e-01
 1.000000e+00  8.767683e-01
 1.000000e+00  8.592735e-01
 1.000000e+00  8.418226e-01
 1.000000e+00  8.244209e-01
 1.000000e+00  8.070739e-01
 1.000000e+00  7.897871e-01
 1.000000e+00  7.725657e-01
 1.000000e+00  7.554151e-01
 1.000000e+00  7.383407e-01
 1.000000e+00  7.213479e-01
 1.000000e+00  7.044418e-01
 1.000000e+00  6.876278e-01
 1.000000e+00  6.709111e-01
 1.000000e+00  6.542969e-01
 1.000000e+00  6.377904e-01
 1.000000e+00  6.213968e-01
 1.000000e+00  6.051210e-01
 1.000000e+00  5.889683e-01
 1.000000e+00  5.729436e-01
 1.000000e+00  5.570519e-01
 1.000000e+00  5.412982e-01
 1.000000e+00  5.256873e-01
 1.000000e+00  5.102243e-01
 1.000000e+00  4.949137e-01
 1.000000e+00  4.797606e-01
 1.000000e+00  4.647694e-01
 1.000000e+00  4.499450e-01
 1.000000e+00  4.352919e-01
 1.000000e+00  4.208147e-01
 1.000000e+00  4.065180e-01
 1.000000e+00  3.924061e-01
 1.000000e+00  3.784834e-01
 1.000000e+00  3.647544e-01
 1.000000e+00  3.512232e-01
 1.000000e+00  3.378942e-01
 1.000000e+00  3.247713e-01
 1.000000e+00  3.118588e-01
 1.000000e+00  2.991607e-01
 1.000000e+00  2.866808e-01
 1.000000e+00  2.744232e-01
 1.000000e+00  2.623915e-01
 1.000000e+00  2.505897e-01
 1.000000e+00  2.390212e-01
 1.000000e+00  2.276898e-01
 1.000000e+00  2.165990e-01
 1.000000e+00  2.057522e-01
 1.000000e+00  1.951528e-01
 1.000000e+00  1.848041e-01
 1.000000e+00  1.747093e-01
 1.000000e+00  1.648716e-01
 1.000000e+00  1.552940e-01
 1.000000e+00  1.459796e-01
 1.000000e+00  1.369311e-01
 1.000000e+00  1.281515e-01
 1.000000e+00  1.196435e-01
 1.000000e+00  1.114098e-01
 1.000000e+00  1.034528e-01
 1.000000e+00  9.577503e-02
 1.000000e+00  8.837896e-02
 1.000000e+00  8.126686e-02
 1.000000e+00  7.444093e-02
 1.000000e+00  6.790331e-02
 1.000000e+00  6.165604e-02
 1.000000e+00  5.570105e-02
 1.000000e+00  5.004020e-02
 1.000000e+00  4.467526e-02
 1.000000e+00  3.960789e-02
 1.000000e+00  3.483968e-02
 1.000000e+00  3.037212e-02
 1.000000e+00  2.620658e-02
 1.000000e+00  2.234438e-02
 1.000000e+00  1.878670e-02
 1.000000e+00  1.553467e-02
 1.000000e+00  1.258929e-02
 1.000000e+00  9.951489e-03
 1.000000e+00  7.622077e-03
 1.000000e+00  5.601784e-03
 1.000000e+00  3.891239e-03
 1.000000e+00  2.490975e-03
 1.000000e+00  1.401428e-03
 1.000000e+00  6.229377e-04
 1.000000e+00  1.557466e-04
 1.000000e+00  0.000000e+00

 1.000000e+00  1.000000e+00
 1.000000e+00  9.823515e-01
 1.000000e+00  9.647085e-01
 1.000000e+00  9.470765e-01
 1.000000e+00  9.294610e-01
 1.000000e+00  9.118675e-01
 1.000000e+00  8.943014e-01
 1.000000e+00  8.767683e-01
 1.000000e+00  8.592735e-01
 1.000000e+00  8.418226e-01
 1.000000e+00  8.244209e-01
 1.000000e+00  8.070739e-01
 1.000000e+00  7.897871e-01
 1.000000e+00  7.725657e-01
 1.000000e+00  7.554151e-01
 1.000000e+00  7.383407e-01
 1.000000e+00  7.213479e-01
 1.000000e+00  7.044418e-01
 1.000000e+00  6.876278e-01
 1.000000e+00  6.709111e-01
 1.000000e+00  6.542969e-01
 1.000000e+00  6.377904e-01
 1.000000e+00  6.213968e-01
 1.000000e+00  6.051210e-01
 1.000000e+00  5.889683e-01
 1.000000e+00  5.729436e-01
 1.000000e+00  5.570519e-01
 1.000000e+00  5.412982e-01
 1.000000e+00  5.256873e-01
 1.000000e+00  5.102243e-01
 1.000000e+00  4.949137e-01
 1.000000e+00  4.797606e-01
 1.000000e+00  4.647694e-01
 1.000000e+00  4.499450e-01
 1.000000e+00  4.352919e-01
 1.000000e+00  4.208147e-01
 1.000000e+00  4.065180e-01
 1.000000e+00  3.924061e-01
 1.000000e+00  3.784834e-01
 1.000000e+00  3.647544e-01
 1.000000e+00  3.512232e-01
 1.000000e+00  3.378942e-01
 1.000000e+00  3.247713e-01
 1.000000e+00  3.118588e-01
 1.000000e+00  2.991607e-01
 1.000000e+00  2.866808e-01
 1.000000e+00  2.744232e-01
 1.000000e+00  2.623915e-01
 1.000000e+00  2.505897e-01
 1.000000e+00  2.390212e-01
 1.000000e+00  2.276898e-01
 1.000000e+00  2.165990e-01
 1.000000e+00  2.057522e-01
 1.000000e+00  1.951528e-01
 1.000000e+00  1.848041e-01
 1.000000e+00  1.747093e-01
 1.000000e+00  1.648716e-01
 1.000000e+00  1.552940e-01
 1.000000e+00  1.459796e-01
 1.000000e+00  1.369311e-01
 1.000000e+00  1.281515e-01
 1.000000e+00  1.196435e-01
 1.000000e+00  1.114098e-01
 1.000000e+00  1.034528e-01
 1.000000e+00  9.577503e-02
 1.000000e+00  8.837896e-02
 1.000000e+00  8.126686e-02
 1.000000e+00  7.444093e-02
 1.000000e+00  6.790331e-02
 1.000000e+00  6.165604e-02
 1.000000e+00  5.570105e-02
 1.000000e+00  5.004020e-02
 1.000000e+00  4.467526e-02
 1.000000e+00  3.960789e-02
 1.000000e+00  3.483968e-02
 1.000000e+00  3.037212e-02
 1.000000e+00  2.620658e-02
 1.000000e+00  2.234438e-02
 1.000000e+00  1.878670e-02
 1.000000e+00  1.553467e-02
 1.000000e+00  1.258929e-02
 1.000000e+00  9.951489e-03
 1.000000e+00  7.622077e-03
 1.000000e+00  5.601784e-03
 1.000000e+00  3.891239e-03
 1.000000e+00  2.490975e-03
 1.000000e+00  1.401428e-03
 1.000000e+00  6.229377e-04
 1.000000e+00  1.557466e-04
 1.000000e+00  0.000000e+00

 1.000000e+00  1.000000e+00
 1.000000e+00  9.823515e-01
 1.000000e+00  9.647085e-01
 1.000000e+00  9.470765e-01
 1.000000e+00  9.294610e-01
 1.000000e+00  9.118675e-01
 1.000000e+00  8.943014e-01
 1.000000e+00  8.767683e-01
 1.000000e+00  8.592735e-01
 1.000000e+00  8.418226e-01
 1.000000e+00  8.244209e-01
 1.000000e+00  8.070739e-01
 1.000000e+00  7.897871e-01
 1.000000e+00  7.725657e-01
 1.000000e+00  7.554151e-01
 1.000000e+00  7.383407e-01
 1.000000e+00  7.213479e-01
 1.000000e+00  7.044418e-01
 1.000000e+00  6.876278e-01
 1.000000e+00  6.709111e-01
 1.000000e+00  6.542969e-01
 1.000000e+00  6.377904e-01
 1.000000e+00  6.213968e-01
 1.000000e+00  6.051210e-01
 1.000000e+00  5.889683e-01
 1.000000e+00  5.729436e-01
 1.000000e+00  5.570519e-01
 1.000000e+00  5.412982e-01
 1.000000e+00  5.256873e-01
 1.000000e+00  5.102243e-01
 1.000000e+00  4.949137e-01
 1.000000e+00  4.797606e-01
 1.000000e+00  4.647694e-01
 1.000000e+00  4.499450e-01
 1.000000e+00  4.352919e-01
 1.000000e+00  4.208147e-01
 1.000000e+00  4.065180e-01
 1.000000e+00  3.924061e-01
 1.000000e+00  3.784834e-01
 1.000000e+00  3.647544e-01
 1.000000e+00  3.512232e-01
 1.000000e+00  3.378942e-01
 1.000000e+00  3.247713e-01
 1.000000e+00  3.118588e-01
 1.000000e+00  2.991607e-01
 1.000000e+00  2.866808e-01
 1.000000e+00  2.744232e-01
 1.000000e+00  2.623915e-01
 1.000000e+00  2.505897e-01
 1.000000e+00  2.390212e-01
 1.000000e+00  2.276898e-01
 1.000000e+00  2.165990e-01
 1.000000e+00  2.057522e-01
 1.000000e+00  1.951528e-01
 1.000000e+00  1.848041e-01
 1.000000e+00  1.747093e-01
 1.000000e+00  1.648716e-01
 1.000000e+00  1.552940e-01
 1.000000e+00  1.459796e-01
 1.000000e+00  1.369311e-01
 1.000000e+00  1.281515e-01
 1.000000e+00  1.196435e-01
 1.000000e+00  1.114098e-01
 1.000000e+00  1.034528e-01
 1.000000e+00  9.577503e-02
 1.000000e+00  8.837896e-02
 1.000000e+00  8.126686e-02
 1.000000e+00  7.444093e-02
 1.000000e+00  6.790331e-02
 1.000000e+00  6.165604e-02
 1.000000e+00  5.570105e-02
 1.000000e+00  5.004020e-02
 1.000000e+00  4.467526e-02
 1.000000e+00  3.960789e-02
 1.000000e+00  3.483968e-02
 1.000000e+00  3.037212e-02
 1.000000e+00  2.620658e-02
 1.000000e+00  2.234438e-02
 1.000000e+00  1.878670e-02
 1.000000e+00  1.553467e-02
 1.000000e+00  1.258929e-02
 1.000000e+00  9.951489e-03
 1.000000e+00  7.622077e-03
 1.000000e+00  5.601784e-03
 1.000000e+00  3.891239e-03
 1.000000e+00  2.490975e-03
 1.000000e+00  1.401428e-03
 1.000000e+00  6.229377e-04
 1.000000e+00  1.557466e-04
 1.000000e+00  0.000000e+00

 1.000000e+00  1.000000e+00
 1.000000e+00  9.823515e-01
 1.000000e+00  9.647085e-01
 1.000000e+00  9.470765e-01
 1.000000e+00  9.294610e-01
 1.000000e+00  9.118675e-01
 1.000000e+00  8.943014e-01
 1.000000e+00  8.767683e-01
 1.000000e+00  8.592735e-01
 1.000000e+00  8.418226e-01
 1.000000e+00  8.244209e-01
 1.000000e+00  8.070739e-01
 1.000000e+00  7.897871e-01
 1.000000e+00  7.725657e-01
 1.000000e+00  7.554151e-01
 1.000000e+00  7.383407e-01
 1.000000e+00  7.213479e-01
 1.000000e+00  7.044418e-01
 1.000000e+00  6.876278e-01
 1.000000e+00  6.709111e-01
 1.000000e+00  6.542969e-01
 1.000000e+00  6.377904e-01
 1.000000e+00  6.213968e-01
 1.000000e+00  6.051210e-01
 1.000000e+00  5.889683e-01
 1.000000e+00  5.729436e-01
 1.000000e+00  5.570519e-01
 1.000000e+00  5.412982e-01
 1.000000e+00  5.256873e-01
 1.000000e+00  5.102243e-01
 1.000000e+00  4.949137e-01
 1.000000e+00  4.797606e-01
 1.000000e+00  4.647694e-01
 1.000000e+00  4.499450e-01
 1.000000e+00  4.352919e-01
 1.000000e+00  4.208147e-01
 1.000000e+00  4.065180e-01
 1.000000e+00  3.924061e-01
 1.000000e+00  3.784834e-01
 1.000000e+00  3.647544e-01
 1.000000e+00  3.512232e-01
 1.000000e+00  3.378942e-01
 1.000000e+00  3.247713e-01
 1.000000e+00  3.118588e-01
 1.000000e+00  2.991607e-01
 1.000000e+00  2.866808e-01
 1.000000e+00  2.744232e-01
 1.000000e+00  2.623915e-01
 1.000000e+00  2.505897e-01
 1.000000e+00  2.390212e-01
 1.000000e+00  2.276898e-01
 1.000000e+00  2.165990e-01
 1.000000e+00  2.057522e-01
 1.000000e+00  1.951528e-01
 1.000000e+00  1.848041e-01
 1.000000e+00  1.747093e-01
 1.000000e+00  1.648716e-01
 1.000000e+00  1.552940e-01
 1.000000e+00  1.459796e-01
 1.000000e+00  1.369311e-01
 1.000000e+00  1.281515e-01
 1.000000e+00  1.196435e-01
 1.000000e+00  1.114098e-01
 1.000000e+00  1.034528e-01
 1.000000e+00  9.577503e-02
 1.000000e+00  8.837896e-02
 1.000000e+00  8.126686e-02
 1.000000e+00  7.444093e-02
 1.000000e+00  6.790331e-02
 1.000000e+00  6.165604e-02
 1.000000e+00  5.570105e-02
 1.000000e+00  5.004020e-02
 1.000000e+00  4.467526e-02
 1.000000e+00  3.960789e-02
 1.000000e+00  3.483968e-02
 1.000000e+00  3.037212e-02
 1.000000e+00  2.620658e-02
 1.000000e+00  2.234438e-02
 1.000000e+00  1.878670e-02
 1.000000e+00  1.553467e-02
 1.000000e+00  1.258929e-02
 1.000000e+00  9.951489e-03
 1.000000e+00  7.622077e-03
 1.000000e+00  5.601784e-03
 1.000000e+00  3.891239e-03
 1.000000e+00  2.490975e-03
 1.000000e+00  1.401428e-03
 1.000000e+00  6.229377e-04
 1.000000e+00  1.557466e-04
 1.000000e+00  0.000000e+00

 1.000000e+00  1.000000e+00
 1.000000e+00  9.823515e-01
 1.000000e+00  9.647085e-01
 1.000000e+00  9.470765e-01
 1.000000e+00  9.294610e-01
 1.000000e+00  9.118675e-01
 1.000000e+00  8.943014e-01
 1.000000e+00  8.767683e-01
 1.000000e+00  8.592735e-01
 1.000000e+00  8.418226e-01
 1.000000e+00  8.244209e-01
 1.000000e+00  8.070739e-01
 1.000000e+00  7.897871e-01
 1.000000e+00  7.725657e-01
 1.000000e+00  7.554151e-01
 1.000000e+00  7.383407e-01
 1.000000e+00  7.213479e-01
 1.000000e+00  7.044418e-01
 1.000000e+00  6.876278e-01
 1.000000e+00  6.709111e-01
 1.000000e+00  6.542969e-01
 1.000000e+00  6.377904e-01
 1.000000e+00  6.213968e-01
 1.000000e+00  6.051210e-01
 1.000000e+00  5.889683e-01
 1.000000e+00  5.729436e-01
 1.000000e+00  5.570519e-01
 1.000000e+00  5.412982e-01
 1.000000e+00  5.256873e-01
 1.000000e+00  5.102243e-01
 1.000000e+00  4.949137e-01
 1.000000e+00  4.797606e-01
 1.000000e+00  4.647694e-01
 1.000000e+00  4.499450e-01
 1.000000e+00  4.352919e-01
 1.000000e+00  4.208147e-01
 1.000000e+00  4.065180e-01
 1.000000e+00  3.924061e-01
 1.000000e+00  3.784834e-01
 1.000000e+00  3.647544e-01
 1.000000e+00  3.512232e-01
 1.000000e+00  3.378942e-01
 1.000000e+00  3.247713e-01
 1.000000e+00  3.118588e-01
 1.000000e+00  2.991607e-01
 1.000000e+00  2.866808e-01
 1.000000e+00  2.744232e-01
 1.000000e+00  2.623915e-01
 1.000000e+00  2.505897e-01
 1.000000e+00  2.390212e-01
 1.000000e+00  2.276898e-01
 1.000000e+00  2.165990e-01
 1.000000e+00  2.057522e-01
 1.000000e+00  1.951528e-01
 1.000000e+00  1.848041e-01
 1.000000e+00  1.747093e-01
 1.000000e+00  1.648716e-01
 1.000000e+00  1.552940e-01
 1.000000e+00  1.459796e-01
 1.000000e+00  1.369311e-01
 1.000000e+00  1.281515e-01
 1.000000e+00  1.196435e-01
 1.000000e+00  1.114098e-01
 1.000000e+00  1.034528e-01
 1.000000e+00  9.577503e-02
 1.000000e+00  8.837896e-02
 1.000000e+00  8.126686e-02
 1.000000e+00  7.444093e-02
 1.000000e+00  6.790331e-02
 1.000000e+00  6.165604e-02
 1.000000e+00  5.570105e-02
 1.000000e+00  5.004020e-02
 1.000000e+00  4.467526e-02
 1.000000e+00  3.960789e-02
 1.000000e+00  3.483968e-02
 1.000000e+00  3.037212e-02
 1.000000e+00  2.620658e-02
 1.000000e+00  2.234438e-02
 1.000000e+00  1.878670e-02
 1.000000e+00  1.553467e-02
 1.000000e+00  1.258929e-02
 1.000000e+00  9.951489e-03
 1.000000e+00  7.622077e-03
 1.000000e+00  5.601784e-03
 1.000000e+00  3.891239e-03
 1.000000e+00  2.490975e-03
 1.000000e+00  1.401428e-03
 1.000000e+00  6.229377e-04
 1.000000e+00  1.557466e-04
 1.000000e+00  0.000000e+00

 1.000000e+00  1.000000e+00
 1.000000e+00  9.823515e-01
 1.000000e+00  9.647085e-01
 1.000000e+00  9.470765e-01
 1.000000e+00  9.294610e-01
 1.000000e+00  9.118675e-01
 1.000000e+00  8.943014e-01
 1.000000e+00  8.767683e-01
 1.000000e+00  8.592735e-01
 1.000000e+00  8.418226e-01
 1.000000e+00  8.244209e-01
 1.000000e+00  8.070739e-01
 1.000000e+00  7.897871e-01
 1.000000e+00  7.725657e-01
 1.000000e+00  7.554151e-01
 1.000000e+00  7.383407e-01
 1.000000e+00  7.213479e-01
 1.000000e+00  7.044418e-01
 1.000000e+00  6.876278e-01
 1.000000e+00  6.709111e-01
 1.000000e+00  6.542969e-01
 1.000000e+00  6.377904e-01
 1.000000e+00  6.213968e-01
 1.000000e+00  6.051210e-01
 1.000000e+00  5.889683e-01
 1.000000e+00  5.729436e-01
 1.000000e+00  5.570519e-01
 1.000000e+00  5.412982e-01
 1.000000e+00  5.256873e-01
 1.000000e+00  5.102243e-01
 1.000000e+00  4.949137e-01
 1.000000e+00  4.797606e-01
 1.000000e+00  4.647694e-01
 1.000000e+00  4.499450e-01
 1.000000e+00  4.352919e-01
 1.000000e+00  4.208147e-01
 1.000000e+00  4.065180e-01
 1.000000e+00  3.924061e-01
 1.000000e+00  3.784834e-01
 1.000000e+00  3.647544e-01
 1.000000e+00  3.512232e-01
 1.000000e+00  3.378942e-01
 1.000000e+00  3.247713e-01
 1.000000e+00  3.118588e-01
 1.000000e+00  2.991607e-01
 1.000000e+00  2.866808e-01
 1.000000e+00  2.744232e-01
 1.000000e+00  2.623915e-01
 1.000000e+00  2.505897e-01
 1.000000e+00  2.390212e-01
 1.000000e+00  2.276898e-01
 1.000000e+00  2.165990e-01
 1.000000e+00  2.057522e-01
 1.000000e+00  1.951528e-01
 1.000000e+00  1.848041e-01
 1.000000e+00  1.747093e-01
 1.000000e+00  1.648716e-01
 1.000000e+00  1.552940e-01
 1.000000e+00  1.459796e-01
 1.000000e+00  1.369311e-01
 1.000000e+00  1.281515e-01
 1.000000e+00  1.196435e-01
 1.000000e+00  1.114098e-01
 1.000000e+00  1.034528e-01
 1.000000e+00  9.577503e-02
 1.000000e+00  8.837896e-02
 1.000000e+00  8.126686e-02
 1.000000e+00  7.444093e-02
 1.000000e+00  6.790331e-02
 1.000000e+00  6.165604e-02
 1.000000e+00  5.570105e-02
 1.000000e+00  5.004020e-02
 1.000000e+00  4.467526e-02
 1.000000e+00  3.960789e-02
 1.000000e+00  3.483968e-02
 1.000000e+00  3.037212e-02
 1.000000e+00  2.620658e-02
 1.000000e+00  2.234438e-02
 1.000000e+00  1.878670e-02
 1.000000e+00  1.553467e-02
 1.000000e+00  1.258929e-02
 1.000000e+00  9.951489e-03
 1.000000e+00  7.622077e-03
 1.000000e+00  5.601784e-03
 1.000000e+00  3.891239e-03
 1.000000e+00  2.490975e-03
 1.000000e+00  1.401428e-03
 1.000000e+00  6.229377e-04
 1.000000e+00  1.557466e-04
 1.000000e+00  0.000000e+00

 1.000000e+00  1.000000e+00
 1.000000e+00  9.823515e-01
 1.000000e+00  9.647085e-01
 1.000000e+00  9.470765e-01
 1.000000e+00  9.294610e-01
 1.000000e+00  9.118675e-01
 1.000000e+00  8.943014e-01
 1.000000e+00  8.767683e-01
 1.000000e+00  8.592735e-01
 1.000000e+00  8.418226e-01
 1.000000e+00  8.244209e-01
 1.000000e+00  8.070739e-01
 1.000000e+00  7.897871e-01
 1.000000e+00  7.725657e-01
 1.000000e+00  7.554151e-01
 1.000000e+00  7.383407e-01
 1.000000e+00  7.213479e-01
 1.000000e+00  7.044418e-01
 1.000000e+00  6.876278e-01
 1.000000e+00  6.709111e-01
 1.000000e+00  6.542969e-01
 1.000000e+00  6.377904e-01
 1.000000e+00  6.213968e-01
 1.000000e+00  6.051210e-01
 1.000000e+00  5.889683e-01
 1.000000e+00  5.729436e-01
 1.000000e+00  5.570519e-01
 1.000000e+00  5.412982e-01
 1.000000e+00  5.256873e-01
 1.000000e+00  5.102243e-01
 1.000000e+00  4.949137e-01
 1.000000e+00  4.797606e-01
 1.000000e+00  4.647694e-01
 1.000000e+00  4.499450e-01
 1.000000e+00  4.352919e-01
 1.000000e+00  4.208147e-01
 1.000000e+00  4.065180e-01
 1.000000e+00  3.924061e-01
 1.000000e+00  3.784834e-01
 1.000000e+00  3.647544e-01
 1.000000e+00  3.512232e-01
 1.000000e+00  3.378942e-01
 1.000000e+00  3.247713e-01
 1.000000e+00  3.118588e-01
 1.000000e+00  2.991607e-01
 1.000000e+00  2.866808e-01
 1.000000e+00  2.744232e-01
 1.000000e+00  2.623915e-01
 1.000000e+00  2.505897e-01
 1.000000e+00  2.390212e-01
 1.000000e+00  2.276898e-01
 1.000000e+00  2.165990e-01
 1.000000e+00  2.057522e-01
 1.000000e+00  1.951528e-01
 1.000000e+00  1.848041e-01
 1.000000e+00  1.747093e-01
 1.000000e+00  1.648716e-01
 1.000000e+00  1.552940e-01
 1.000000e+00  1.459796e-01
 1.000000e+00  1.369311e-01
 1.000000e+00  1.281515e-01
 1.000000e+00  1.196435e-01
 1.000000e+00  1.114098e-01
 1.000000e+00  1.034528e-01
 1.000000e+00  9.577503e-02
 1.000000e+00  8.837896e-02
 1.000000e+00  8.126686e-02
 1.000000e+00  7.444093e-02
 1.000000e+00  6.790331e-02
 1.000000e+00  6.165604e-02
 1.000000e+00  5.570105e-02
 1.000000e+00  5.004020e-02
 1.000000e+00  4.467526e-02
 1.000000e+00  3.960789e-02
 1.000000e+00  3.483968e-02
 1.000000e+00  3.037212e-02
 1.000000e+00  2.620658e-02
 1.000000e+00  2.234438e-02
 1.000000e+00  1.878670e-02
 1.000000e+00  1.553467e-02
 1.000000e+00  1.258929e-02
 1.000000e+00  9.951489e-03
 1.000000e+00  7.622077e-03
 1.000000e+00  5.601784e-03
 1.000000e+00  3.891239e-03
 1.000000e+00  2.490975e-03
 1.000000e+00  1.401428e-03
 1.000000e+00  6.229377e-04
 1.000000e+00  1.557466e-04
 1.000000e+00  0.000000e+00

 1.000000e+00  1.000000e+00
 1.000000e+00  9.823515e-01
 1.000000e+00  9.647085e-01
 1.000000e+00  9.470765e-01
 1.000000e+00  9.294610e-01
 1.000000e+00  9.118675e-01
 1.000000e+00  8.943014e-01
 1.000000e+00  8.767683e-01
 1.000000e+00  8.592735e-01
 1.000000e+00  8.418226e-01
 1.000000e+00  8.244209e-01
 1.000000e+00  8.070739e-01
 1.000000e+00  7.897871e-01
 1.000000e+00  7.725657e-01
 1.000000e+00  7.554151e-01
 1.000000e+00  7.383407e-01
 1.000000e+00  7.213479e-01
 1.000000e+00  7.044418e-01
 1.000000e+00  6.876278e-01
 1.000000e+00  6.709111e-01
 1.000000e+00  6.542969e-01
 1.000000e+00  6.377904e-01
 1.000000e+00  6.213968e-01
 1.000000e+00  6.051210e-01
 1.000000e+00  5.889683e-01
 1.000000e+00  5.729436e-01
 1.000000e+00  5.570519e-01
 1.000000e+00  5.412982e-01
 1.000000e+00  5.256873e-01
 1.000000e+00  5.102243e-01
 1.000000e+00  4.949137e-01
 1.000000e+00  4.797606e-01
 1.000000e+00  4.647694e-01
 1.000000e+00  4.499450e-01
 1.000000e+00  4.352919e-01
 1.000000e+00  4.208147e-01
 1.000000e+00  4.065180e-01
 1.000000e+00  3.924061e-01
 1.000000e+00  3.784834e-01
 1.000000e+00  3.647544e-01
 1.000000e+00  3.512232e-01
 1.000000e+00  3.378942e-01
 1.000000e+00  3.247713e-01
 1.000000e+00  3.118588e-01
 1.000000e+00  2.991607e-01
 1.000000e+00  2.866808e-01
 1.000000e+00  2.744232e-01
 1.000000e+00  2.623915e-01
 1.000000e+00  2.505897e-01
 1.000000e+00  2.390212e-01
 1.000000e+00  2.276898e-01
 1.000000e+00  2.165990e-01
 1.000000e+00  2.057522e-01
 1.000000e+00  1.951528e-01
 1.000000e+00  1.848041e-01
 1.000000e+00  1.747093e-01
 1.000000e+00  1.648716e-01
 1.000000e+00  1.552940e-01
 1.000000e+00  1.459796e-01
 1.000000e+00  1.369311e-01
 1.000000e+00  1.281515e-01
 1.000000e+00  1.196435e-01
 1.000000e+00  1.114098e-01
 1.000000e+00  1.034528e-01
 1.000000e+00  9.577503e-02
 1.000000e+00  8.837896e-02
 1.000000e+00  8.126686e-02
 1.000000e+00  7.444093e-02
 1.000000e+00  6.790331e-02
 1.000000e+00  6.165604e-02
 1.000000e+00  5.570105e-02
 1.000000e+00  5.004020e-02
 1.000000e+00  4.467526e-02
 1.000000e+00  3.960789e-02
 1.000000e+00  3.483968e-02
 1.000000e+00  3.037212e-02
 1.000000e+00  2.620658e-02
 1.000000e+00  2.234438e-02
 1.000000e+00  1.878670e-02
 1.000000e+00  1.553467e-02
 1.000000e+00  1.258929e-02
 1.000000e+00  9.951489e-03
 1.000000e+00  7.622077e-03
 1.000000e+00  5.601784e-03
 1.000000e+00  3.891239e-03
 1.000000e+00  2.490975e-03
 1.000000e+00  1.401428e-03
 1.000000e+00  6.229377e-04
 1.000000e+00  1.557466e-04
 1.000000e+00  0.000000e+00

 1.000000e+00  1.000000e+00
 1.000000e+00  9.823515e-01
 1.000000e+00  9.647085e-01
 1.000000e+00  9.470765e-01
 1.000000e+00  9.294610e-01
 1.000000e+00  9.118675e-01
 1.000000e+00  8.943014e-01
 1.000000e+00  8.767683e-01
 1.000000e+00  8.592735e-01
 1.000000e+00  8.418226e-01
 1.000000e+00  8.244209e-01
 1.000000e+00  8.070739e-01
 1.000000e+00  7.897871e-01
 1.000000e+00  7.725657e-01
 1.000000e+00  7.554151e-01
 1.000000e+00  7.383407e-01
 1.000000e+00  7.213479e-01
 1.000000e+00  7.044418e-01
 1.000000e+00  6.876278e-01
 1.000000e+00  6.709111e-01
 1.000000e+00  6.542969e-01
 1.000000e+00  6.377904e-01
 1.000000e+00  6.213968e-01
 1.000000e+00  6.051210e-01
 1.000000e+00  5.889683e-01
 1.000000e+00  5.729436e-01
 1.000000e+00  5.570519e-01
 1.000000e+00  5.412982e-01
 1.000000e+00  5.256873e-01
 1.000000e+00  5.102243e-01
 1.000000e+00  4.949137e-01
 1.000000e+00  4.797606e-01
 1.000000e+00  4.647694e-01
 1.000000e+00  4.499450e-01
 1.000000e+00  4.352919e-01
 1.000000e+00  4.208147e-01
 1.000000e+00  4.065180e-01
 1.000000e+00  3.924061e-01
 1.000000e+00  3.784834e-01
 1.000000e+00  3.647544e-01
 1.000000e+00  3.512232e-01
 1.000000e+00  3.378942e-01
 1.000000e+00  3.247713e-01
 1.000000e+00  3.118588e-01
 1.000000e+00  2.991607e-01
 1.000000e+00  2.866808e-01
 1.000000e+00  2.744232e-01
 1.000000e+00  2.623915e-01
 1.000000e+00  2.505897e-01
 1.000000e+00  2.390212e-01
 1.000000e+00  2.276898e-01
 1.000000e+00  2.165990e-01
 1.000000e+00  2.057522e-01
 1.000000e+00  1.951528e-01
 1.000000e+00  1.848041e-01
 1.000000e+00  1.747093e-01
 1.000000e+00  1.648716e-01
 1.000000e+00  1.552940e-01
 1.000000e+00  1.459796e-01
 1.000000e+00  1.369311e-01
 1.000000e+00  1.281515e-01
 1.000000e+00  1.196435e-01
 1.000000e+00  1.114098e-01
 1.000000e+00  1.034528e-01
 1.000000e+00  9.577503e-02
 1.000000e+00  8.837896e-02
 1.000000e+00  8.126686e-02
 1.000000e+00  7.444093e-02
 1.000000e+00  6.790331e-02
 1.000000e+00  6.165604e-02
 1.000000e+00  5.570105e-02
 1.000000e+00  5.004020e-02
 1.000000e+00  4.467526e-02
 1.000000e+00  3.960789e-02
 1.000000e+00  3.483968e-02
 1.000000e+00  3.037212e-02
 1.000000e+00  2.620658e-02
 1.000000e+00  2.234438e-02
 1.000000e+00  1.878670e-02
 1.000000e+00  1.553467e-02
 1.000000e+00  1.258929e-02
 1.000000e+00  9.951489e-03
 1.000000e+00  7.622077e-03
 1.000000e+00  5.601784e-03
 1.000000e+00  3.891239e-03
 1.000000e+00  2.490975e-03
 1.000000e+00  1.401428e-03
 1.000000e+00  6.229377e-04
 1.000000e+00  1.557466e-04
 1.000000e+00  0.000000e+00

 1.000000e+00  1.000000e+00
 1.000000e+00  9.823515e-01
 1.000000e+00  9.647085e-01
 1.000000e+00  9.470765e-01
 1.000000e+00  9.294610e-01
 1.000000e+00  9.118675e-01
 1.000000e+00  8.943014e-01
 1.000000e+00  8.767683e-01
 1.000000e+00  8.592735e-01
 1.000000e+00  8.418226e-01
 1.000000e+00  8.244209e-01
 1.000000e+00  8.070739e-01
 1.000000e+00  7.897871e-01
 1.000000e+00  7.725657e-01
 1.000000e+00  7.554151e-01
 1.000000e+00  7.383407e-01
 1.000000e+00  7.213479e-01
 1.000000e+00  7.044418e-01
 1.000000e+00  6.876278e-01
 1.000000e+00  6.709111e-01
 1.000000e+00  6.542969e-01
 1.000000e+00  6.377904e-01
 1.000000e+00  6.213968e-01
 1.000000e+00  6.051210e-01
 1.000000e+00  5.889683e-01
 1.000000e+00  5.729436e-01
 1.000000e+00  5.570519e-01
 1.000000e+00  5.412982e-01
 1.000000e+00  5.256873e-01
 1.000000e+00  5.102243e-01
 1.000000e+00  4.949137e-01
 1.000000e+00  4.797606e-01
 1.000000e+00  4.647694e-01
 1.000000e+00  4.499450e-01
 1.000000e+00  4.352919e-01
 1.000000e+00  4.208147e-01
 1.000000e+00  4.065180e-01
 1.000000e+00  3.924061e-01
 1.000000e+00  3.784834e-01
 1.000000e+00  3.647544e-01
 1.000000e+00  3.512232e-01
 1.000000e+00  3.378942e-01
 1.000000e+00  3.247713e-01
 1.000000e+00  3.118588e-01
 1.000000e+00  2.991607e-01
 1.000000e+00  2.866808e-01
 1.000000e+00  2.744232e-01
 1.000000e+00  2.623915e-01
 1.000000e+00  2.505897e-01
 1.000000e+00  2.390212e-01
 1.000000e+00  2.276898e-01
 1.000000e+00  2.165990e-01
 1.000000e+00  2.057522e-01
 1.000000e+00  1.951528e-01
 1.000000e+00  1.848041e-01
 1.000000e+00  1.747093e-01
 1.000000e+00  1.648716e-01
 1.000000e+00  1.552940e-01
 1.000000e+00  1.459796e-01
 1.000000e+00  1.369311e-01
 1.000000e+00  1.281515e-01
 1.000000e+00  1.196435e-01
 1.000000e+00  1.114098e-01
 1.000000e+00  1.034528e-01
 1.000000e+00  9.577503e-02
 1.000000e+00  8.837896e-02
 1.000000e+00  8.126686e-02
 1.000000e+00  7.444093e-02
 1.000000e+00  6.790331e-02
 1.000000e+00  6.165604e-02
 1.000000e+00  5.570105e-02
 1.000000e+00  5.004020e-02
 1.000000e+00  4.467526e-02
 1.000000e+00  3.960789e-02
 1.000000e+00  3.483968e-02
 1.000000e+00  3.037212e-02
 1.000000e+00  2.620658e-02
 1.000000e+00  2.234438e-02
 1.000000e+00  1.878670e-02
 1.000000e+00  1.553467e-02
 1.000000e+00  1.258929e-02
 1.000000e+00  9.951489e-03
 1.000000e+00  7.622077e-03
 1.000000e+00  5.601784e-03
 1.000000e+00  3.891239e-03
 1.000000e+00  2.490975e-03
 1.000000e+00  1.401428e-03
 1.000000e+00  6.229377e-04
 1.000000e+00  1.557466e-04
 1.000000e+00  0.000000e+00

 1.000000e+00  1.000000e+00
 1.000000e+00  9.823515e-01
 1.000000e+00  9.647085e-01
 1.000000e+00  9.470765e-01
 1.000000e+00  9.294610e-01
 1.000000e+00  9.118675e-01
 1.000000e+00  8.943014e-01
 1.000000e+00  8.767683e-01
 1.000000e+00  8.592735e-01
 1.000000e+00  8.418226e-01
 1.000000e+00  8.244209e-01
 1.000000e+00  8.070739e-01
 1.000000e+00  7.897871e-01
 1.000000e+00  7.725657e-01
 1.000000e+00  7.554151e-01
 1.000000e+00  7.383407e-01
 1.000000e+00  7.213479e-01
 1.000000e+00  7.044418e-01
 1.000000e+00  6.876278e-01
 1.000000e+00  6.709111e-01
 1.000000e+00  6.542969e-01
 1.000000e+00  6.377904e-01
 1.000000e+00  6.213968e-01
 1.000000e+00  6.051210e-01
 1.000000e+00  5.889683e-01
 1.000000e+00  5.729436e-01
 1.000000e+00  5.570519e-01
 1.000000e+00  5.412982e-01
 1.000000e+00  5.256873e-01
 1.000000e+00  5.102243e-01
 1.000000e+00  4.949137e-01
 1.000000e+00  4.797606e-01
 1.000000e+00  4.647694e-01
 1.000000e+00  4.499450e-01
 1.000000e+00  4.352919e-01
 1.000000e+00  4.208147e-01
 1.000000e+00  4.065180e-01
 1.000000e+00  3.924061e-01
 1.000000e+00  3.784834e-01
 1.000000e+00  3.647544e-01
 1.000000e+00  3.512232e-01
 1.000000e+00  3.378942e-01
 1.000000e+00  3.247713e-01
 1.000000e+00  3.118588e-01
 1.000000e+00  2.991607e-01
 1.000000e+00  2.866808e-01
 1.000000e+00  2.744232e-01
 1.000000e+00  2.623915e-01
 1.000000e+00  2.505897e-01
 1.000000e+00  2.390212e-01
 1.000000e+00  2.276898e-01
 1.000000e+00  2.165990e-01
 1.000000e+00  2.057522e-01
 1.000000e+00  1.951528e-01
 1.000000e+00  1.848041e-01
 1.000000e+00  1.747093e-01
 1.000000e+00  1.648716e-01
 1.000000e+00  1.552940e-01
 1.000000e+00  1.459796e-01
 1.000000e+00  1.369311e-01
 1.000000e+00  1.281515e-01
 1.000000e+00  1.196435e-01
 1.000000e+00  1.114098e-01
 1.000000e+00  1.034528e-01
 1.000000e+00  9.577503e-02
 1.000000e+00  8.837896e-02
 1.000000e+00  8.126686e-02
 1.000000e+00  7.444093e-02
 1.000000e+00  6.790331e-02
 1.000000e+00  6.165604e-02
 1.000000e+00  5.570105e-02
 1.000000e+00  5.004020e-02
 1.000000e+00  4.467526e-02
 1.000000e+00  3.960789e-02
 1.000000e+00  3.483968e-02
 1.000000e+00  3.037212e-02
 1.000000e+00  2.620658e-02
 1.000000e+00  2.234438e-02
 1.000000e+00  1.878670e-02
 1.000000e+00  1.553467e-02
 1.000000e+00  1.258929e-02
 1.000000e+00  9.951489e-03
 1.000000e+00  7.622077e-03
 1.000000e+00  5.601784e-03
 1.000000e+00  3.891239e-03
 1.000000e+00  2.490975e-03
 1.000000e+00  1.401428e-03
 1.000000e+00  6.229377e-04
 1.000000e+00  1.557466e-04
 1.000000e+00  0.000000e+00

 1.000000e+00  1.000000e+00
 1.000000e+00  9.823515e-01
 1.000000e+00  9.647085e-01
 1.000000e+00  9.470765e-01
 1.000000e+00  9.294610e-01
 1.000000e+00  9.118675e-01
 1.000000e+00  8.943014e-01
 1.000000e+00  8.767683e-01
 1.000000e+00  8.592735e-01
 1.000000e+00  8.418226e-01
 1.000000e+00  8.244209e-01
 1.000000e+00  8.070739e-01
 1.000000e+00  7.897871e-01
 1.000000e+00  7.725657e-01
 1.000000e+00  7.554151e-01
 1.000000e+00  7.383407e-01
 1.000000e+00  7.213479e-01
 1.000000e+00  7.044418e-01
 1.000000e+00  6.876278e-01
 1.000000e+00  6.709111e-01
 1.000000e+00  6.542969e-01
 1.000000e+00  6.377904e-01
 1.000000e+00  6.213968e-01
 1.000000e+00  6.051210e-01
 1.000000e+00  5.889683e-01
 1.000000e+00  5.729436e-01
 1.000000e+00  5.570519e-01
 1.000000e+00  5.412982e-01
 1.000000e+00  5.256873e-01
 1.000000e+00  5.102243e-01
 1.000000e+00  4.949137e-01
 1.000000e+00  4.797606e-01
 1.000000e+00  4.647694e-01
 1.000000e+00  4.499450e-01
 1.000000e+00  4.352919e-01
 1.000000e+00  4.208147e-01
 1.000000e+00  4.065180e-01
 1.000000e+00  3.924061e-01
 1.000000e+00  3.784834e-01
 1.000000e+00  3.647544e-01
 1.000000e+00  3.512232e-01
 1.000000e+00  3.378942e-01
 1.000000e+00  3.247713e-01
 1.000000e+00  3.118588e-01
 1.000000e+00  2.991607e-01
 1.000000e+00  2.866808e-01
 1.000000e+00  2.744232e-01
 1.000000e+00  2.623915e-01
 1.000000e+00  2.505897e-01
 1.000000e+00  2.390212e-01
 1.000000e+00  2.276898e-01
 1.000000e+00  2.165990e-01
 1.000000e+00  2.057522e-01
 1.000000e+00  1.951528e-01
 1.000000e+00  1.848041e-01
 1.000000e+00  1.747093e-01
 1.000000e+00  1.648716e-01
 1.000000e+00  1.552940e-01
 1.000000e+00  1.459796e-01
 1.000000e+00  1.369311e-01
 1.000000e+00  1.281515e-01
 1.000000e+00  1.196435e-01
 1.000000e+00  1.114098e-01
 1.000000e+00  1.034528e-01
 1.000000e+00  9.577503e-02
 1.000000e+00  8.837896e-02
 1.000000e+00  8.126686e-02
 1.000000e+00  7.444093e-02
 1.000000e+00  6.790331e-02
 1.000000e+00  6.165604e-02
 1.000000e+00  5.570105e-02
 1.000000e+00  5.004020e-02
 1.000000e+00  4.467526e-02
 1.000000e+00  3.960789e-02
 1.000000e+00  3.483968e-02
 1.000000e+00  3.037212e-02
 1.000000e+00  2.620658e-02
 1.000000e+00  2.234438e-02
 1.000000e+00  1.878670e-02
 1.000000e+00  1.553467e-02
 1.000000e+00  1.258929e-02
 1.000000e+00  9.951489e-03
 1.000000e+00  7.622077e-03
 1.000000e+00  5.601784e-03
 1.000000e+00  3.891239e-03
 1.000000e+00  2.490975e-03
 1.000000e+00  1.401428e-03
 1.000000e+00  6.229377e-04
 1.000000e+00  1.557466e-04
 1.000000e+00  0.000000e+00

 1.000000e+00  1.000000e+00
 1.000000e+00  9.823515e-01
 1.000000e+00  9.647085e-01
 1.000000e+00  9.470765e-01
 1.000000e+00  9.294610e-01
 1.000000e+00  9.118675e-01
 1.000000e+00  8.943014e-01
 1.000000e+00  8.767683e-01
 1.000000e+00  8.592735e-01
 1.000000e+00  8.418226e-01
 1.000000e+00  8.244209e-01
 1.000000e+00  8.070739e-01
 1.000000e+00  7.897871e-01
 1.000000e+00  7.725657e-01
 1.000000e+00  7.554151e-01
 1.000000e+00  7.383407e-01
 1.000000e+00  7.213479e-01
 1.000000e+00  7.044418e-01
 1.000000e+00  6.876278e-01
 1.000000e+00  6.709111e-01
 1.000000e+00  6.542969e-01
 1.000000e+00  6.377904e-01
 1.000000e+00  6.213968e-01
 1.000000e+00  6.051210e-01
 1.000000e+00  5.889683e-01
 1.000000e+00  5.729436e-01
 1.000000e+00  5.570519e-01
 1.000000e+00  5.412982e-01
 1.000000e+00  5.256873e-01
 1.000000e+00  5.102243e-01
 1.000000e+00  4.949137e-01
 1.000000e+00  4.797606e-01
 1.000000e+00  4.647694e-01
 1.000000e+00  4.499450e-01
 1.000000e+00  4.352919e-01
 1.000000e+00  4.208147e-01
 1.000000e+00  4.065180e-01
 1.000000e+00  3.924061e-01
 1.000000e+00  3.784834e-01
 1.000000e+00  3.647544e-01
 1.000000e+00  3.512232e-01
 1.000000e+00  3.378942e-01
 1.000000e+00  3.247713e-01
 1.000000e+00  3.118588e-01
 1.000000e+00  2.991607e-01
 1.000000e+00  2.866808e-01
 1.000000e+00  2.744232e-01
 1.000000e+00  2.623915e-01
 1.000000e+00  2.505897e-01
 1.000000e+00  2.390212e-01
 1.000000e+00  2.276898e-01
 1.000000e+00  2.165990e-01
 1.000000e+00  2.057522e-01
 1.000000e+00  1.951528e-01
 1.000000e+00  1.848041e-01
 1.000000e+00  1.747093e-01
 1.000000e+00  1.648716e-01
 1.000000e+00  1.552940e-01
 1.000000e+00  1.459796e-01
 1.000000e+00  1.369311e-01
 1.000000e+00  1.281515e-01
 1.000000e+00  1.196435e-01
 1.000000e+00  1.114098e-01
 1.000000e+00  1.034528e-01
 1.000000e+00  9.577503e-02
 1.000000e+00  8.837896e-02
 1.000000e+00  8.126686e-02
 1.000000e+00  7.444093e-02
 1.000000e+00  6.790331e-02
 1.000000e+00  6.165604e-02
 1.000000e+00  5.570105e-02
 1.000000e+00  5.004020e-02
 1.000000e+00  4.467526e-02
 1.000000e+00  3.960789e-02
 1.000000e+00  3.483968e-02
 1.000000e+00  3.037212e-02
 1.000000e+00  2.620658e-02
 1.000000e+00  2.234438e-02
 1.000000e+00  1.878670e-02
 1.000000e+00  1.553467e-02
 1.000000e+00  1.258929e-02
 1.000000e+00  9.951489e-03
 1.000000e+00  7.622077e-03
 1.000000e+00  5.601784e-03
 1.000000e+00  3.891239e-03
 1.000000e+00  2.490975e-03
 1.000000e+00  1.401428e-03
 1.000000e+00  6.229377e-04
 1.000000e+00  1.557466e-04
 1.000000e+00  0.000000e+00

 1.000000e+00  1.000000e+00
 1.000000e+00  9.823515e-01
 1.000000e+00  9.647085e-01
 1.000000e+00  9.470765e-01
 1.000000e+00  9.294610e-01
 1.000000e+00  9.118675e-01
 1.000000e+00  8.943014e-01
 1.000000e+00  8.767683e-01
 1.000000e+00  8.592735e-01
 1.000000e+00  8.418226e-01
 1.000000e+00  8.244209e-01
 1.000000e+00  8.070739e-01
 1.000000e+00  7.897871e-01
 1.000000e+00  7.725657e-01
 1.000000e+00  7.554151e-01
 1.000000e+00  7.383407e-01
 1.000000e+00  7.213479e-01
 1.000000e+00  7.044418e-01
 1.000000e+00  6.876278e-01
 1.000000e+00  6.709111e-01
 1.000000e+00  6.542969e-01
 1.000000e+00  6.377904e-01
 1.000000e+00  6.213968e-01
 1.000000e+00  6.051210e-01
 1.000000e+00  5.889683e-01
 1.000000e+00  5.729436e-01
 1.000000e+00  5.570519e-01
 1.000000e+00  5.412982e-01
 1.000000e+00  5.256873e-01
 1.000000e+00  5.102243e-01
 1.000000e+00  4.949137e-01
 1.000000e+00  4.797606e-01
 1.000000e+00  4.647694e-01
 1.000000e+00  4.499450e-01
 1.000000e+00  4.352919e-01
 1.000000e+00  4.208147e-01
 1.000000e+00  4.065180e-01
 1.000000e+00  3.924061e-01
 1.000000e+00  3.784834e-01
 1.000000e+00  3.647544e-01
 1.000000e+00  3.512232e-01
 1.000000e+00  3.378942e-01
 1.000000e+00  3.247713e-01
 1.000000e+00  3.118588e-01
 1.000000e+00  2.991607e-01
 1.000000e+00  2.866808e-01
 1.000000e+00  2.744232e-01
 1.000000e+00  2.623915e-01
 1.000000e+00  2.505897e-01
 1.000000e+00  2.390212e-01
 1.000000e+00  2.276898e-01
 1.000000e+00  2.165990e-01
 1.000000e+00  2.057522e-01
 1.000000e+00  1.951528e-01
 1.000000e+00  1.848041e-01
 1.000000e+00  1.747093e-01
 1.000000e+00  1.648716e-01
 1.000000e+00  1.552940e-01
 1.000000e+00  1.459796e-01
 1.000000e+00  1.369311e-01
 1.000000e+00  1.281515e-01
 1.000000e+00  1.196435e-01
 1.000000e+00  1.114098e-01
 1.000000e+00  1.034528e-01
 1.000000e+00  9.577503e-02
 1.000000e+00  8.837896e-02
 1.000000e+00  8.126686e-02
 1.000000e+00  7.444093e-02
 1.000000e+00  6.790331e-02
 1.000000e+00  6.165604e-02
 1.000000e+00  5.570105e-02
 1.000000e+00  5.004020e-02
 1.000000e+00  4.467526e-02
 1.000000e+00  3.960789e-02
 1.000000e+00  3.483968e-02
 1.000000e+00  3.037212e-02
 1.000000e+00  2.620658e-02
 1.000000e+00  2.234438e-02
 1.000000e+00  1.878670e-02
 1.000000e+00  1.553467e-02
 1.000000e+00  1.258929e-02
 1.000000e+00  9.951489e-03
 1.000000e+00  7.622077e-03
 1.000000e+00  5.601784e-03
 1.000000e+00  3.891239e-03
 1.000000e+00  2.490975e-03
 1.000000e+00  1.401428e-03
 1.000000e+00  6.229377e-04
 1.000000e+00  1.557466e-04
 1.000000e+00  0.000000e+00

 1.000000e+00  1.000000e+00
 1.000000e+00  9.823515e-01
 1.000000e+00  9.647085e-01
 1.000000e+00  9.470765e-01
 1.000000e+00  9.294610e-01
 1.000000e+00  9.118675e-01
 1.000000e+00  8.943014e-01
 1.000000e+00  8.767683e-01
 1.000000e+00  8.592735e-01
 1.000000e+00  8.418226e-01
 1.000000e+00  8.244209e-01
 1.000000e+00  8.070739e-01
 1.000000e+00  7.897871e-01
 1.000000e+00  7.725657e-01
 1.000000e+00  7.554151e-01
 1.000000e+00  7.383407e-01
 1.000000e+00  7.213479e-01
 1.000000e+00  7.044418e-01
 1.000000e+00  6.876278e-01
 1.000000e+00  6.709111e-01
 1.000000e+00  6.542969e-01
 1.000000e+00  6.377904e-01
 1.000000e+00  6.213968e-01
 1.000000e+00  6.051210e-01
 1.000000e+00  5.889683e-01
 1.000000e+00  5.729436e-01
 1.000000e+00  5.570519e-01
 1.000000e+00  5.412982e-01
 1.000000e+00  5.256873e-01
 1.000000e+00  5.102243e-01
 1.000000e+00  4.949137e-01
 1.000000e+00  4.797606e-01
 1.000000e+00  4.647694e-01
 1.000000e+00  4.499450e-01
 1.000000e+00  4.352919e-01
 1.000000e+00  4.208147e-01
 1.000000e+00  4.065180e-01
 1.000000e+00  3.924061e-01
 1.000000e+00  3.784834e-01
 1.000000e+00  3.647544e-01
 1.000000e+00  3.512232e-01
 1.000000e+00  3.378942e-01
 1.000000e+00  3.247713e-01
 1.000000e+00  3.118588e-01
 1.000000e+00  2.991607e-01
 1.000000e+00  2.866808e-01
 1.000000e+00  2.744232e-01
 1.000000e+00  2.623915e-01
 1.000000e+00  2.505897e-01
 1.000000e+00  2.390212e-01
 1.000000e+00  2.276898e-01
 1.000000e+00  2.165990e-01
 1.000000e+00  2.057522e-01
 1.000000e+00  1.951528e-01
 1.000000e+00  1.848041e-01
 1.000000e+00  1.747093e-01
 1.000000e+00  1.648716e-01
 1.000000e+00  1.552940e-01
 1.000000e+00  1.459796e-01
 1.000000e+00  1.369311e-01
 1.000000e+00  1.281515e-01
 1.000000e+00  1.196435e-01
 1.000000e+00  1.114098e-01
 1.000000e+00  1.034528e-01
 1.000000e+00  9.577503e-02
 1.000000e+00  8.837896e-02
 1.000000e+00  8.126686e-02
 1.000000e+00  7.444093e-02
 1.000000e+00  6.790331e-02
 1.000000e+00  6.165604e-02
 1.000000e+00  5.570105e-02
 1.000000e+00  5.004020e-02
 1.000000e+00  4.467526e-02
 1.000000e+00  3.960789e-02
 1.000000e+00  3.483968e-02
 1.000000e+00  3.037212e-02
 1.000000e+00  2.620658e-02
 1.000000e+00  2.234438e-02
 1.000000e+00  1.878670e-02
 1.000000e+00  1.553467e-02
 1.000000e+00  1.258929e-02
 1.000000e+00  9.951489e-03
 1.000000e+00  7.622077e-03
 1.000000e+00  5.601784e-03
 1.000000e+00  3.891239e-03
 1.000000e+00  2.490975e-03
 1.000000e+00  1.401428e-03
 1.000000e+00  6.229377e-04
 1.000000e+00  1.557466e-04
 1.000000e+00  0.000000e+00

 1.000000e+00  1.000000e+00
 1.000000e+00  9.823515e-01
 1.000000e+00  9.647085e-01
 1.000000e+00  9.470765e-01
 1.000000e+00  9.294610e-01
 1.000000e+00  9.118675e-01
 1.000000e+00  8.943014e-01
 1.000000e+00  8.767683e-01
 1.000000e+00  8.592735e-01
 1.000000e+00  8.418226e-01
 1.000000e+00  8.244209e-01
 1.000000e+00  8.070739e-01
 1.000000e+00  7.897871e-01
 1.000000e+00  7.725657e-01
 1.000000e+00  7.554151e-01
 1.000000e+00  7.383407e-01
 1.000000e+00  7.213479e-01
 1.000000e+00  7.044418e-01
 1.000000e+00  6.876278e-01
 1.000000e+00  6.709111e-01
 1.000000e+00  6.542969e-01
 1.000000e+00  6.377904e-01
 1.000000e+00  6.213968e-01
 1.000000e+00  6.051210e-01
 1.000000e+00  5.889683e-01
 1.000000e+00  5.729436e-01
 1.000000e+00  5.570519e-01
 1.000000e+00  5.412982e-01
 1.000000e+00  5.256873e-01
 1.000000e+00  5.102243e-01
 1.000000e+00  4.949137e-01
 1.000000e+00  4.797606e-01
 1.000000e+00  4.647694e-01
 1.000000e+00  4.499450e-01
 1.000000e+00  4.352919e-01
 1.000000e+00  4.208147e-01
 1.000000e+00  4.065180e-01
 1.000000e+00  3.924061e-01
 1.000000e+00  3.784834e-01
 1.000000e+00  3.647544e-01
 1.000000e+00  3.512232e-01
 1.000000e+00  3.378942e-01
 1.000000e+00  3.247713e-01
 1.000000e+00  3.118588e-01
 1.000000e+00  2.991607e-01
 1.000000e+00  2.866808e-01
 1.000000e+00  2.744232e-01
 1.000000e+00  2.623915e-01
 1.000000e+00  2.505897e-01
 1.000000e+00  2.390212e-01
 1.000000e+00  2.276898e-01
 1.000000e+00  2.165990e-01
 1.000000e+00  2.057522e-01
 1.000000e+00  1.951528e-01
 1.000000e+00  1.848041e-01
 1.000000e+00  1.747093e-01
 1.000000e+00  1.648716e-01
 1.000000e+00  1.552940e-01
 1.000000e+00  1.459796e-01
 1.000000e+00  1.369311e-01
 1.000000e+00  1.281515e-01
 1.000000e+00  1.196435e-01
 1.000000e+00  1.114098e-01
 1.000000e+00  1.034528e-01
 1.000000e+00  9.577503e-02
 1.000000e+00  8.837896e-02
 1.000000e+00  8.126686e-02
 1.000000e+00  7.444093e-02
 1.000000e+00  6.790331e-02
 1.000000e+00  6.165604e-02
 1.000000e+00  5.570105e-02
 1.000000e+00  5.004020e-02
 1.000000e+00  4.467526e-02
 1.000000e+00  3.960789e-02
 1.000000e+00  3.483968e-02
 1.000000e+00  3.037212e-02
 1.000000e+00  2.620658e-02
 1.000000e+00  2.234438e-02
 1.000000e+00  1.878670e-02
 1.000000e+00  1.553467e-02
 1.000000e+00  1.258929e-02
 1.000000e+00  9.951489e-03
 1.000000e+00  7.622077e-03
 1.000000e+00  5.601784e-03
 1.000000e+00  3.891239e-03
 1.000000e+00  2.490975e-03
 1.000000e+00  1.401428e-03
 1.000000e+00  6.229377e-04
 1.000000e+00  1.557466e-04
 1.000000e+00  0.000000e+00

 1.000000e+00  1.000000e+00
 1.000000e+00  9.823515e-01
 1.000000e+00  9.647085e-01
 1.000000e+00  9.470765e-01
 1.000000e+00  9.294610e-01
 1.000000e+00  9.118675e-01
 1.000000e+00  8.943014e-01
 1.000000e+00  8.767683e-01
 1.000000e+00  8.592735e-01
 1.000000e+00  8.418226e-01
 1.000000e+00  8.244209e-01
 1.000000e+00  8.070739e-01
 1.000000e+00  7.897871e-01
 1.000000e+00  7.725657e-01
 1.000000e+00  7.554151e-01
 1.000000e+00  7.383407e-01
 1.000000e+00  7.213479e-01
 1.000000e+00  7.044418e-01
 1.000000e+00  6.876278e-01
 1.000000e+00  6.709111e-01
 1.000000e+00  6.542969e-01
 1.000000e+00  6.377904e-01
 1.000000e+00  6.213968e-01
 1.000000e+00  6.051210e-01
 1.000000e+00  5.889683e-01
 1.000000e+00  5.729436e-01
 1.000000e+00  5.570519e-01
 1.000000e+00  5.412982e-01
 1.000000e+00  5.256873e-01
 1.000000e+00  5.102243e-01
 1.000000e+00  4.949137e-01
 1.000000e+00  4.797606e-01
 1.000000e+00  4.647694e-01
 1.000000e+00  4.499450e-01
 1.000000e+00  4.352919e-01
 1.000000e+00  4.208147e-01
 1.000000e+00  4.065180e-01
 1.000000e+00  3.924061e-01
 1.000000e+00  3.784834e-01
 1.000000e+00  3.647544e-01
 1.000000e+00  3.512232e-01
 1.000000e+00  3.378942e-01
 1.000000e+00  3.247713e-01
 1.000000e+00  3.118588e-01
 1.000000e+00  2.991607e-01
 1.000000e+00  2.866808e-01
 1.000000e+00  2.744232e-01
 1.000000e+00  2.623915e-01
 1.000000e+00  2.505897e-01
 1.000000e+00  2.390212e-01
 1.000000e+00  2.276898e-01
 1.000000e+00  2.165990e-01
 1.000000e+00  2.057522e-01
 1.000000e+00  1.951528e-01
 1.000000e+00  1.848041e-01
 1.000000e+00  1.747093e-01
 1.000000e+00  1.648716e-01
 1.000000e+00  1.552940e-01
 1.000000e+00  1.459796e-01
 1.000000e+00  1.369311e-01
 1.000000e+00  1.281515e-01
 1.000000e+00  1.196435e-01
 1.000000e+00  1.114098e-01
 1.000000e+00  1.034528e-01
 1.000000e+00  9.577503e-02
 1.000000e+00  8.837896e-02
 1.000000e+00  8.126686e-02
 1.000000e+00  7.444093e-02
 1.000000e+00  6.790331e-02
 1.000000e+00  6.165604e-02
 1.000000e+00  5.570105e-02
 1.000000e+00  5.004020e-02
 1.000000e+00  4.467526e-02
 1.000000e+00  3.960789e-02
 1.000000e+00  3.483968e-02
 1.000000e+00  3.037212e-02
 1.000000e+00  2.620658e-02
 1.000000e+00  2.234438e-02
 1.000000e+00  1.878670e-02
 1.000000e+00  1.553467e-02
 1.000000e+00  1.258929e-02
 1.000000e+00  9.951489e-03
 1.000000e+00  7.622077e-03
 1.000000e+00  5.601784e-03
 1.000000e+00  3.891239e-03
 1.000000e+00  2.490975e-03
 1.000000e+00  1.401428e-03
 1.000000e+00  6.229377e-04
 1.000000e+00  1.557466e-04
 1.000000e+00  0.000000e+00

 1.000000e+00  1.000000e+00
 1.000000e+00  9.823515e-01
 1.000000e+00  9.647085e-01
 1.000000e+00  9.470765e-01
 1.000000e+00  9.294610e-01
 1.000000e+00  9.118675e-01
 1.000000e+00  8.943014e-01
 1.000000e+00  8.767683e-01
 1.000000e+00  8.592735e-01
 1.000000e+00  8.418226e-01
 1.000000e+00  8.244209e-01
 1.000000e+00  8.070739e-01
 1.000000e+00  7.897871e-01
 1.000000e+00  7.725657e-01
 1.000000e+00  7.554151e-01
 1.000000e+00  7.383407e-01
 1.000000e+00  7.213479e-01
 1.000000e+00  7.044418e-01
 1.000000e+00  6.876278e-01
 1.000000e+00  6.709111e-01
 1.000000e+00  6.542969e-01
 1.000000e+00  6.377904e-01
 1.000000e+00  6.213968e-01
 1.000000e+00  6.051210e-01
 1.000000e+00  5.889683e-01
 1.000000e+00  5.729436e-01
 1.000000e+00  5.570519e-01
 1.000000e+00  5.412982e-01
 1.000000e+00  5.256873e-01
 1.000000e+00  5.102243e-01
 1.000000e+00  4.949137e-01
 1.000000e+00  4.797606e-01
 1.000000e+00  4.647694e-01
 1.000000e+00  4.499450e-01
 1.000000e+00  4.352919e-01
 1.000000e+00  4.208147e-01
 1.000000e+00  4.065180e-01
 1.000000e+00  3.924061e-01
 1.000000e+00  3.784834e-01
 1.000000e+00  3.647544e-01
 1.000000e+00  3.512232e-01
 1.000000e+00  3.378942e-01
 1.000000e+00  3.247713e-01
 1.000000e+00  3.118588e-01
 1.000000e+00  2.991607e-01
 1.000000e+00  2.866808e-01
 1.000000e+00  2.744232e-01
 1.000000e+00  2.623915e-01
 1.000000e+00  2.505897e-01
 1.000000e+00  2.390212e-01
 1.000000e+00  2.276898e-01
 1.000000e+00  2.165990e-01
 1.000000e+00  2.057522e-01
 1.000000e+00  1.951528e-01
 1.000000e+00  1.848041e-01
 1.000000e+00  1.747093e-01
 1.000000e+00  1.648716e-01
 1.000000e+00  1.552940e-01
 1.000000e+00  1.459796e-01
 1.000000e+00  1.369311e-01
 1.000000e+00  1.281515e-01
 1.000000e+00  1.196435e-01
 1.000000e+00  1.114098e-01
 1.000000e+00  1.034528e-01
 1.000000e+00  9.577503e-02
 1.000000e+00  8.837896e-02
 1.000000e+00  8.126686e-02
 1.000000e+00  7.444093e-02
 1.000000e+00  6.790331e-02
 1.000000e+00  6.165604e-02
 1.000000e+00  5.570105e-02
 1.000000e+00  5.004020e-02
 1.000000e+00  4.467526e-02
 1.000000e+00  3.960789e-02
 1.000000e+00  3.483968e-02
 1.000000e+00  3.037212e-02
 1.000000e+00  2.620658e-02
 1.000000e+00  2.234438e-02
 1.000000e+00  1.878670e-02
 1.000000e+00  1.553467e-02
 1.000000e+00  1.258929e-02
 1.000000e+00  9.951489e-03
 1.000000e+00  7.622077e-03
 1.000000e+00  5.601784e-03
 1.000000e+00  3.891239e-03
 1.000000e+00  2.490975e-03
 1.000000e+00  1.401428e-03
 1.000000e+00  6.229377e-04
 1.000000e+00  1.557466e-04
 1.000000e+00  0.000000e+00

 1.000000e+00  1.000000e+00
 1.000000e+00  9.823515e-01
 1.000000e+00  9.647085e-01
 1.000000e+00  9.470765e-01
 1.000000e+00  9.294610e-01
 1.000000e+00  9.118675e-01
 1.000000e+00  8.943014e-01
 1.000000e+00  8.767683e-01
 1.000000e+00  8.592735e-01
 1.000000e+00  8.418226e-01
 1.000000e+00  8.244209e-01
 1.000000e+00  8.070739e-01
 1.000000e+00  7.897871e-01
 1.000000e+00  7.725657e-01
 1.000000e+00  7.554151e-01
 1.000000e+00  7.383407e-01
 1.000000e+00  7.213479e-01
 1.000000e+00  7.044418e-01
 1.000000e+00  6.876278e-01
 1.000000e+00  6.709111e-01
 1.000000e+00  6.542969e-01
 1.000000e+00  6.377904e-01
 1.000000e+00  6.213968e-01
 1.000000e+00  6.051210e-01
 1.000000e+00  5.889683e-01
 1.000000e+00  5.729436e-01
 1.000000e+00  5.570519e-01
 1.000000e+00  5.412982e-01
 1.000000e+00  5.256873e-01
 1.000000e+00  5.102243e-01
 1.000000e+00  4.949137e-01
 1.000000e+00  4.797606e-01
 1.000000e+00  4.647694e-01
 1.000000e+00  4.499450e-01
 1.000000e+00  4.352919e-01
 1.000000e+00  4.208147e-01
 1.000000e+00  4.065180e-01
 1.000000e+00  3.924061e-01
 1.000000e+00  3.784834e-01
 1.000000e+00  3.647544e-01
 1.000000e+00  3.512232e-01
 1.000000e+00  3.378942e-01
 1.000000e+00  3.247713e-01
 1.000000e+00  3.118588e-01
 1.000000e+00  2.991607e-01
 1.000000e+00  2.866808e-01
 1.000000e+00  2.744232e-01
 1.000000e+00  2.623915e-01
 1.000000e+00  2.505897e-01
 1.000000e+00  2.390212e-01
 1.000000e+00  2.276898e-01
 1.000000e+00  2.165990e-01
 1.000000e+00  2.057522e-01
 1.000000e+00  1.951528e-01
 1.000000e+00  1.848041e-01
 1.000000e+00  1.747093e-01
 1.000000e+00  1.648716e-01
 1.000000e+00  1.552940e-01
 1.000000e+00  1.459796e-01
 1.000000e+00  1.369311e-01
 1.000000e+00  1.281515e-01
 1.000000e+00  1.196435e-01
 1.000000e+00  1.114098e-01
 1.000000e+00  1.034528e-01
 1.000000e+00  9.577503e-02
 1.000000e+00  8.837896e-02
 1.000000e+00  8.126686e-02
 1.000000e+00  7.444093e-02
 1.000000e+00  6.790331e-02
 1.000000e+00  6.165604e-02
 1.000000e+00  5.570105e-02
 1.000000e+00  5.004020e-02
 1.000000e+00  4.467526e-02
 1.000000e+00  3.960789e-02
 1.000000e+00  3.483968e-02
 1.000000e+00  3.037212e-02
 1.000000e+00  2.620658e-02
 1.000000e+00  2.234438e-02
 1.000000e+00  1.878670e-02
 1.000000e+00  1.553467e-02
 1.000000e+00  1.258929e-02
 1.000000e+00  9.951489e-03
 1.000000e+00  7.622077e-03
 1.000000e+00  5.601784e-03
 1.000000e+00  3.891239e-03
 1.000000e+00  2.490975e-03
 1.000000e+00  1.401428e-03
 1.000000e+00  6.229377e-04
 1.000000e+00  1.557466e-04
 1.000000e+00  0.000000e+00

 1.000000e+00  1.000000e+00
 1.000000e+00  9.823515e-01
 1.000000e+00  9.647085e-01
 1.000000e+00  9.470765e-01
 1.000000e+00  9.294610e-01
 1.000000e+00  9.118675e-01
 1.000000e+00  8.943014e-01
 1.000000e+00  8.767683e-01
 1.000000e+00  8.592735e-01
 1.000000e+00  8.418226e-01
 1.000000e+00  8.244209e-01
 1.000000e+00  8.070739e-01
 1.000000e+00  7.897871e-01
 1.000000e+00  7.725657e-01
 1.000000e+00  7.554151e-01
 1.000000e+00  7.383407e-01
 1.000000e+00  7.213479e-01
 1.000000e+00  7.044418e-01
 1.000000e+00  6.876278e-01
 1.000000e+00  6.709111e-01
 1.000000e+00  6.542969e-01
 1.000000e+00  6.377904e-01
 1.000000e+00  6.213968e-01
 1.000000e+00  6.051210e-01
 1.000000e+00  5.889683e-01
 1.000000e+00  5.729436e-01
 1.000000e+00  5.570519e-01
 1.000000e+00  5.412982e-01
 1.000000e+00  5.256873e-01
 1.000000e+00  5.102243e-01
 1.000000e+00  4.949137e-01
 1.000000e+00  4.797606e-01
 1.000000e+00  4.647694e-01
 1.000000e+00  4.499450e-01
 1.000000e+00  4.352919e-01
 1.000000e+00  4.208147e-01
 1.000000e+00  4.065180e-01
 1.000000e+00  3.924061e-01
 1.000000e+00  3.784834e-01
 1.000000e+00  3.647544e-01
 1.000000e+00  3.512232e-01
 1.000000e+00  3.378942e-01
 1.000000e+00  3.247713e-01
 1.000000e+00  3.118588e-01
 1.000000e+00  2.991607e-01
 1.000000e+00  2.866808e-01
 1.000000e+00  2.744232e-01
 1.000000e+00  2.623915e-01
 1.000000e+00  2.505897e-01
 1.000000e+00  2.390212e-01
 1.000000e+00  2.276898e-01
 1.000000e+00  2.165990e-01
 1.000000e+00  2.057522e-01
 1.000000e+00  1.951528e-01
 1.000000e+00  1.848041e-01
 1.000000e+00  1.747093e-01
 1.000000e+00  1.648716e-01
 1.000000e+00  1.552940e-01
 1.000000e+00  1.459796e-01
 1.000000e+00  1.369311e-01
 1.000000e+00  1.281515e-01
 1.000000e+00  1.196435e-01
 1.000000e+00  1.114098e-01
 1.000000e+00  1.034528e-01
 1.000000e+00  9.577503e-02
 1.000000e+00  8.837896e-02
 1.000000e+00  8.126686e-02
 1.000000e+00  7.444093e-02
 1.000000e+00  6.790331e-02
 1.000000e+00  6.165604e-02
 1.000000e+00  5.570105e-02
 1.000000e+00  5.004020e-02
 1.000000e+00  4.467526e-02
 1.000000e+00  3.960789e-02
 1.000000e+00  3.483968e-02
 1.000000e+00  3.037212e-02
 1.000000e+00  2.620658e-02
 1.000000e+00  2.234438e-02
 1.000000e+00  1.878670e-02
 1.000000e+00  1.553467e-02
 1.000000e+00  1.258929e-02
 1.000000e+00  9.951489e-03
 1.000000e+00  7.622077e-03
 1.000000e+00  5.601784e-03
 1.000000e+00  3.891239e-03
 1.000000e+00  2.490975e-03
 1.000000e+00  1.401428e-03
 1.000000e+00  6.229377e-04
 1.000000e+00  1.557466e-04
 1.000000e+00  0.000000e+00

 1.000000e+00  1.000000e+00
 1.000000e+00  9.823515e-01
 1.000000e+00  9.647085e-01
 1.000000e+00  9.470765e-01
 1.000000e+00  9.294610e-01
 1.000000e+00  9.118675e-01
 1.000000e+00  8.943014e-01
 1.000000e+00  8.767683e-01
 1.000000e+00  8.592735e-01
 1.000000e+00  8.418226e-01
 1.000000e+00  8.244209e-01
 1.000000e+00  8.070739e-01
 1.000000e+00  7.897871e-01
 1.000000e+00  7.725657e-01
 1.000000e+00  7.554151e-01
 1.000000e+00  7.383407e-01
 1.000000e+00  7.213479e-01
 1.000000e+00  7.044418e-01
 1.000000e+00  6.876278e-01
 1.000000e+00  6.709111e-01
 1.000000e+00  6.542969e-01
 1.000000e+00  6.377904e-01
 1.000000e+00  6.213968e-01
 1.000000e+00  6.051210e-01
 1.000000e+00  5.889683e-01
 1.000000e+00  5.729436e-01
 1.000000e+00  5.570519e-01
 1.000000e+00  5.412982e-01
 1.000000e+00  5.256873e-01
 1.000000e+00  5.102243e-01
 1.000000e+00  4.949137e-01
 1.000000e+00  4.797606e-01
 1.000000e+00  4.647694e-01
 1.000000e+00  4.499450e-01
 1.000000e+00  4.352919e-01
 1.000000e+00  4.208147e-01
 1.000000e+00  4.065180e-01
 1.000000e+00  3.924061e-01
 1.000000e+00  3.784834e-01
 1.000000e+00  3.647544e-01
 1.000000e+00  3.512232e-01
 1.000000e+00  3.378942e-01
 1.000000e+00  3.247713e-01
 1.000000e+00  3.118588e-01
 1.000000e+00  2.991607e-01
 1.000000e+00  2.866808e-01
 1.000000e+00  2.744232e-01
 1.000000e+00  2.623915e-01
 1.000000e+00  2.505897e-01
 1.000000e+00  2.390212e-01
 1.000000e+00  2.276898e-01
 1.000000e+00  2.165990e-01
 1.000000e+00  2.057522e-01
 1.000000e+00  1.951528e-01
 1.000000e+00  1.848041e-01
 1.000000e+00  1.747093e-01
 1.000000e+00  1.648716e-01
 1.000000e+00  1.552940e-01
 1.000000e+00  1.459796e-01
 1.000000e+00  1.369311e-01
 1.000000e+00  1.281515e-01
 1.000000e+00  1.196435e-01
 1.000000e+00  1.114098e-01
 1.000000e+00  1.034528e-01
 1.000000e+00  9.577503e-02
 1.000000e+00  8.837896e-02
 1.000000e+00  8.126686e-02
 1.000000e+00  7.444093e-02
 1.000000e+00  6.790331e-02
 1.000000e+00  6.165604e-02
 1.000000e+00  5.570105e-02
 1.000000e+00  5.004020e-02
 1.000000e+00  4.467526e-02
 1.000000e+00  3.960789e-02
 1.000000e+00  3.483968e-02
 1.000000e+00  3.037212e-02
 1.000000e+00  2.620658e-02
 1.000000e+00  2.234438e-02
 1.000000e+00  1.878670e-02
 1.000000e+00  1.553467e-02
 1.000000e+00  1.258929e-02
 1.000000e+00  9.951489e-03
 1.000000e+00  7.622077e-03
 1.000000e+00  5.601784e-03
 1.000000e+00  3.891239e-03
 1.000000e+00  2.490975e-03
 1.000000e+00  1.401428e-03
 1.000000e+00  6.229377e-04
 1.000000e+00  1.557466e-04
 1.000000e+00  0.000000e+00

 1.000000e+00  1.000000e+00
 1.000000e+00  9.823515e-01
 1.000000e+00  9.647085e-01
 1.000000e+00  9.470765e-01
 1.000000e+00  9.294610e-01
 1.000000e+00  9.118675e-01
 1.000000e+00  8.943014e-01
 1.000000e+00  8.767683e-01
 1.000000e+00  8.592735e-01
 1.000000e+00  8.418226e-01
 1.000000e+00  8.244209e-01
 1.000000e+00  8.070739e-01
 1.000000e+00  7.897871e-01
 1.000000e+00  7.725657e-01
 1.000000e+00  7.554151e-01
 1.000000e+00  7.383407e-01
 1.000000e+00  7.213479e-01
 1.000000e+00  7.044418e-01
 1.000000e+00  6.876278e-01
 1.000000e+00  6.709111e-01
 1.000000e+00  6.542969e-01
 1.000000e+00  6.377904e-01
 1.000000e+00  6.213968e-01
 1.000000e+00  6.051210e-01
 1.000000e+00  5.889683e-01
 1.000000e+00  5.729436e-01
 1.000000e+00  5.570519e-01
 1.000000e+00  5.412982e-01
 1.000000e+00  5.256873e-01
 1.000000e+00  5.102243e-01
 1.000000e+00  4.949137e-01
 1.000000e+00  4.797606e-01
 1.000000e+00  4.647694e-01
 1.000000e+00  4.499450e-01
 1.000000e+00  4.352919e-01
 1.000000e+00  4.208147e-01
 1.000000e+00  4.065180e-01
 1.000000e+00  3.924061e-01
 1.000000e+00  3.784834e-01
 1.000000e+00  3.647544e-01
 1.000000e+00  3.512232e-01
 1.000000e+00  3.378942e-01
 1.000000e+00  3.247713e-01
 1.000000e+00  3.118588e-01
 1.000000e+00  2.991607e-01
 1.000000e+00  2.866808e-01
 1.000000e+00  2.744232e-01
 1.000000e+00  2.623915e-01
 1.000000e+00  2.505897e-01
 1.000000e+00  2.390212e-01
 1.000000e+00  2.276898e-01
 1.000000e+00  2.165990e-01
 1.000000e+00  2.057522e-01
 1.000000e+00  1.951528e-01
 1.000000e+00  1.848041e-01
 1.000000e+00  1.747093e-01
 1.000000e+00  1.648716e-01
 1.000000e+00  1.552940e-01
 1.000000e+00  1.459796e-01
 1.000000e+00  1.369311e-01
 1.000000e+00  1.281515e-01
 1.000000e+00  1.196435e-01
 1.000000e+00  1.114098e-01
 1.000000e+00  1.034528e-01
 1.000000e+00  9.577503e-02
 1.000000e+00  8.837896e-02
 1.000000e+00  8.126686e-02
 1.000000e+00  7.444093e-02
 1.000000e+00  6.790331e-02
 1.000000e+00  6.165604e-02
 1.000000e+00  5.570105e-02
 1.000000e+00  5.004020e-02
 1.000000e+00  4.467526e-02
 1.000000e+00  3.960789e-02
 1.000000e+00  3.483968e-02
 1.000000e+00  3.037212e-02
 1.000000e+00  2.620658e-02
 1.000000e+00  2.234438e-02
 1.000000e+00  1.878670e-02
 1.000000e+00  1.553467e-02
 1.000000e+00  1.258929e-02
 1.000000e+00  9.951489e-03
 1.000000e+00  7.622077e-03
 1.000000e+00  5.601784e-03
 1.000000e+00  3.891239e-03
 1.000000e+00  2.490975e-03
 1.000000e+00  1.401428e-03
 1.000000e+00  6.229377e-04
 1.000000e+00  1.557466e-04
 1.000000e+00  0.000000e+00

 1.000000e+00  1.000000e+00
 1.000000e+00  9.823515e-01
 1.000000e+00  9.647085e-01
 1.000000e+00  9.470765e-01
 1.000000e+00  9.294610e-01
 1.000000e+00  9.118675e-01
 1.000000e+00  8.943014e-01
 1.000000e+00  8.767683e-01
 1.000000e+00  8.592735e-01
 1.000000e+00  8.418226e-01
 1.000000e+00  8.244209e-01
 1.000000e+00  8.070739e-01
 1.000000e+00  7.897871e-01
 1.000000e+00  7.725657e-01
 1.000000e+00  7.554151e-01
 1.000000e+00  7.383407e-01
 1.000000e+00  7.213479e-01
 1.000000e+00  7.044418e-01
 1.000000e+00  6.876278e-01
 1.000000e+00  6.709111e-01
 1.000000e+00  6.542969e-01
 1.000000e+00  6.377904e-01
 1.000000e+00  6.213968e-01
 1.000000e+00  6.051210e-01
 1.000000e+00  5.889683e-01
 1.000000e+00  5.729436e-01
 1.000000e+00  5.570519e-01
 1.000000e+00  5.412982e-01
 1.000000e+00  5.256873e-01
 1.000000e+00  5.102243e-01
 1.000000e+00  4.949137e-01
 1.000000e+00  4.797606e-01
 1.000000e+00  4.647694e-01
 1.000000e+00  4.499450e-01
 1.000000e+00  4.352919e-01
 1.000000e+00  4.208147e-01
 1.000000e+00  4.065180e-01
 1.000000e+00  3.924061e-01
 1.000000e+00  3.784834e-01
 1.000000e+00  3.647544e-01
 1.000000e+00  3.512232e-01
 1.000000e+00  3.378942e-01
 1.000000e+00  3.247713e-01
 1.000000e+00  3.118588e-01
 1.000000e+00  2.991607e-01
 1.000000e+00  2.866808e-01
 1.000000e+00  2.744232e-01
 1.000000e+00  2.623915e-01
 1.000000e+00  2.505897e-01
 1.000000e+00  2.390212e-01
 1.000000e+00  2.276898e-01
 1.000000e+00  2.165990e-01
 1.000000e+00  2.057522e-01
 1.000000e+00  1.951528e-01
 1.000000e+00  1.848041e-01
 1.000000e+00  1.747093e-01
 1.000000e+00  1.648716e-01
 1.000000e+00  1.552940e-01
 1.000000e+00  1.459796e-01
 1.000000e+00  1.369311e-01
 1.000000e+00  1.281515e-01
 1.000000e+00  1.196435e-01
 1.000000e+00  1.114098e-01
 1.000000e+00  1.034528e-01
 1.000000e+00  9.577503e-02
 1.000000e+00  8.837896e-02
 1.000000e+00  8.126686e-02
 1.000000e+00  7.444093e-02
 1.000000e+00  6.790331e-02
 1.000000e+00  6.165604e-02
 1.000000e+00  5.570105e-02
 1.000000e+00  5.004020e-02
 1.000000e+00  4.467526e-02
 1.000000e+00  3.960789e-02
 1.000000e+00  3.483968e-02
 1.000000e+00  3.037212e-02
 1.000000e+00  2.620658e-02
 1.000000e+00  2.234438e-02
 1.000000e+00  1.878670e-02
 1.000000e+00  1.553467e-02
 1.000000e+00  1.258929e-02
 1.000000e+00  9.951489e-03
 1.000000e+00  7.622077e-03
 1.000000e+00  5.601784e-03
 1.000000e+00  3.891239e-03
 1.000000e+00  2.490975e-03
 1.000000e+00  1.401428e-03
 1.000000e+00  6.229377e-04
 1.000000e+00  1.557466e-04
 1.000000e+00  0.000000e+00

 1.000000e+00  1.000000e+00
 1.000000e+00  9.823515e-01
 1.000000e+00  9.647085e-01
 1.000000e+00  9.470765e-01
 1.000000e+00  9.294610e-01
 1.000000e+00  9.118675e-01
 1.000000e+00  8.943014e-01
 1.000000e+00  8.767683e-01
 1.000000e+00  8.592735e-01
 1.000000e+00  8.418226e-01
 1.000000e+00  8.244209e-01
 1.000000e+00  8.070739e-01
 1.000000e+00  7.897871e-01
 1.000000e+00  7.725657e-01
 1.000000e+00  7.554151e-01
 1.000000e+00  7.383407e-01
 1.000000e+00  7.213479e-01
 1.000000e+00  7.044418e-01
 1.000000e+00  6.876278e-01
 1.000000e+00  6.709111e-01
 1.000000e+00  6.542969e-01
 1.000000e+00  6.377904e-01
 1.000000e+00  6.213968e-01
 1.000000e+00  6.051210e-01
 1.000000e+00  5.889683e-01
 1.000000e+00  5.729436e-01
 1.000000e+00  5.570519e-01
 1.000000e+00  5.412982e-01
 1.000000e+00  5.256873e-01
 1.000000e+00  5.102243e-01
 1.000000e+00  4.949137e-01
 1.000000e+00  4.797606e-01
 1.000000e+00  4.647694e-01
 1.000000e+00  4.499450e-01
 1.000000e+00  4.352919e-01
 1.000000e+00  4.208147e-01
 1.000000e+00  4.065180e-01
 1.000000e+00  3.924061e-01
 1.000000e+00  3.784834e-01
 1.000000e+00  3.647544e-01
 1.000000e+00  3.512232e-01
 1.000000e+00  3.378942e-01
 1.000000e+00  3.247713e-01
 1.000000e+00  3.118588e-01
 1.000000e+00  2.991607e-01
 1.000000e+00  2.866808e-01
 1.000000e+00  2.744232e-01
 1.000000e+00  2.623915e-01
 1.000000e+00  2.505897e-01
 1.000000e+00  2.390212e-01
 1.000000e+00  2.276898e-01
 1.000000e+00  2.165990e-01
 1.000000e+00  2.057522e-01
 1.000000e+00  1.951528e-01
 1.000000e+00  1.848041e-01
 1.000000e+00  1.747093e-01
 1.000000e+00  1.648716e-01
 1.000000e+00  1.552940e-01
 1.000000e+00  1.459796e-01
 1.000000e+00  1.369311e-01
 1.000000e+00  1.281515e-01
 1.000000e+00  1.196435e-01
 1.000000e+00  1.114098e-01
 1.000000e+00  1.034528e-01
 1.000000e+00  9.577503e-02
 1.000000e+00  8.837896e-02
 1.000000e+00  8.126686e-02
 1.000000e+00  7.444093e-02
 1.000000e+00  6.790331e-02
 1.000000e+00  6.165604e-02
 1.000000e+00  5.570105e-02
 1.000000e+00  5.004020e-02
 1.000000e+00  4.467526e-02
 1.000000e+00  3.960789e-02
 1.000000e+00  3.483968e-02
 1.000000e+00  3.037212e-02
 1.000000e+00  2.620658e-02
 1.000000e+00  2.234438e-02
 1.000000e+00  1.878670e-02
 1.000000e+00  1.553467e-02
 1.000000e+00  1.258929e-02
 1.000000e+00  9.951489e-03
 1.000000e+00  7.622077e-03
 1.000000e+00  5.601784e-03
 1.000000e+00  3.891239e-03
 1.000000e+00  2.490975e-03
 1.000000e+00  1.401428e-03
 1.000000e+00  6.229377e-04
 1.000000e+00  1.557466e-04
 1.000000e+00  0.000000e+00

 1.000000e+00  1.000000e+00
 1.000000e+00  9.823515e-01
 1.000000e+00  9.647085e-01
 1.000000e+00  9.470765e-01
 1.000000e+00  9.294610e-01
 1.000000e+00  9.118675e-01
 1.000000e+00  8.943014e-01
 1.000000e+00  8.767683e-01
 1.000000e+00  8.592735e-01
 1.000000e+00  8.418226e-01
 1.000000e+00  8.244209e-01
 1.000000e+00  8.070739e-01
 1.000000e+00  7.897871e-01
 1.000000e+00  7.725657e-01
 1.000000e+00  7.554151e-01
 1.000000e+00  7.383407e-01
 1.000000e+00  7.213479e-01
 1.000000e+00  7.044418e-01
 1.000000e+00  6.876278e-01
 1.000000e+00  6.709111e-01
 1.000000e+00  6.542969e-01
 1.000000e+00  6.377904e-01
 1.000000e+00  6.213968e-01
 1.000000e+00  6.051210e-01
 1.000000e+00  5.889683e-01
 1.000000e+00  5.729436e-01
 1.000000e+00  5.570519e-01
 1.000000e+00  5.412982e-01
 1.000000e+00  5.256873e-01
 1.000000e+00  5.102243e-01
 1.000000e+00  4.949137e-01
 1.000000e+00  4.797606e-01
 1.000000e+00  4.647694e-01
 1.000000e+00  4.499450e-01
 1.000000e+00  4.352919e-01
 1.000000e+00  4.208147e-01
 1.000000e+00  4.065180e-01
 1.000000e+00  3.924061e-01
 1.000000e+00  3.784834e-01
 1.000000e+00  3.647544e-01
 1.000000e+00  3.512232e-01
 1.000000e+00  3.378942e-01
 1.000000e+00  3.247713e-01
 1.000000e+00  3.118588e-01
 1.000000e+00  2.991607e-01
 1.000000e+00  2.866808e-01
 1.000000e+00  2.744232e-01
 1.000000e+00  2.623915e-01
 1.000000e+00  2.505897e-01
 1.000000e+00  2.390212e-01
 1.000000e+00  2.276898e-01
 1.000000e+00  2.165990e-01
 1.000000e+00  2.057522e-01
 1.000000e+00  1.951528e-01
 1.000000e+00  1.848041e-01
 1.000000e+00  1.747093e-01
 1.000000e+00  1.648716e-01
 1.000000e+00  1.552940e-01
 1.000000e+00  1.459796e-01
 1.000000e+00  1.369311e-01
 1.000000e+00  1.281515e-01
 1.000000e+00  1.196435e-01
 1.000000e+00  1.114098e-01
 1.000000e+00  1.034528e-01
 1.000000e+00  9.577503e-02
 1.000000e+00  8.837896e-02
 1.000000e+00  8.126686e-02
 1.000000e+00  7.444093e-02
 1.000000e+00  6.790331e-02
 1.000000e+00  6.165604e-02
 1.000000e+00  5.570105e-02
 1.000000e+00  5.004020e-02
 1.000000e+00  4.467526e-02
 1.000000e+00  3.960789e-02
 1.000000e+00  3.483968e-02
 1.000000e+00  3.037212e-02
 1.000000e+00  2.620658e-02
 1.000000e+00  2.234438e-02
 1.000000e+00  1.878670e-02
 1.000000e+00  1.553467e-02
 1.000000e+00  1.258929e-02
 1.000000e+00  9.951489e-03
 1.000000e+00  7.622077e-03
 1.000000e+00  5.601784e-03
 1.000000e+00  3.891239e-03
 1.000000e+00  2.490975e-03
 1.000000e+00  1.401428e-03
 1.000000e+00  6.229377e-04
 1.000000e+00  1.557466e-04
 1.000000e+00  0.000000e+00

 1.000000e+00  1.000000e+00
 1.000000e+00  9.823515e-01
 1.000000e+00  9.647085e-01
 1.000000e+00  9.470765e-01
 1.000000e+00  9.294610e-01
 1.000000e+00  9.118675e-01
 1.000000e+00  8.943014e-01
 1.000000e+00  8.767683e-01
 1.000000e+00  8.592735e-01
 1.000000e+00  8.418226e-01
 1.000000e+00  8.244209e-01
 1.000000e+00  8.070739e-01
 1.000000e+00  7.897871e-01
 1.000000e+00  7.725657e-01
 1.000000e+00  7.554151e-01
 1.000000e+00  7.383407e-01
 1.000000e+00  7.213479e-01
 1.000000e+00  7.044418e-01
 1.000000e+00  6.876278e-01
 1.000000e+00  6.709111e-01
 1.000000e+00  6.542969e-01
 1.000000e+00  6.377904e-01
 1.000000e+00  6.213968e-01
 1.000000e+00  6.051210e-01
 1.000000e+00  5.889683e-01
 1.000000e+00  5.729436e-01
 1.000000e+00  5.570519e-01
 1.000000e+00  5.412982e-01
 1.000000e+00  5.256873e-01
 1.000000e+00  5.102243e-01
 1.000000e+00  4.949137e-01
 1.000000e+00  4.797606e-01
 1.000000e+00  4.647694e-01
 1.000000e+00  4.499450e-01
 1.000000e+00  4.352919e-01
 1.000000e+00  4.208147e-01
 1.000000e+00  4.065180e-01
 1.000000e+00  3.924061e-01
 1.000000e+00  3.784834e-01
 1.000000e+00  3.647544e-01
 1.000000e+00  3.512232e-01
 1.000000e+00  3.378942e-01
 1.000000e+00  3.247713e-01
 1.000000e+00  3.118588e-01
 1.000000e+00  2.991607e-01
 1.000000e+00  2.866808e-01
 1.000000e+00  2.744232e-01
 1.000000e+00  2.623915e-01
 1.000000e+00  2.505897e-01
 1.000000e+00  2.390212e-01
 1.000000e+00  2.276898e-01
 1.000000e+00  2.165990e-01
 1.000000e+00  2.057522e-01
 1.000000e+00  1.951528e-01
 1.000000e+00  1.848041e-01
 1.000000e+00  1.747093e-01
 1.000000e+00  1.648716e-01
 1.000000e+00  1.552940e-01
 1.000000e+00  1.459796e-01
 1.000000e+00  1.369311e-01
 1.000000e+00  1.281515e-01
 1.000000e+00  1.196435e-01
 1.000000e+00  1.114098e-01
 1.000000e+00  1.034528e-01
 1.000000e+00  9.577503e-02
 1.000000e+00  8.837896e-02
 1.000000e+00  8.126686e-02
 1.000000e+00  7.444093e-02
 1.000000e+00  6.790331e-02
 1.000000e+00  6.165604e-02
 1.000000e+00  5.570105e-02
 1.000000e+00  5.004020e-02
 1.000000e+00  4.467526e-02
 1.000000e+00  3.960789e-02
 1.000000e+00  3.483968e-02
 1.000000e+00  3.037212e-02
 1.000000e+00  2.620658e-02
 1.000000e+00  2.234438e-02
 1.000000e+00  1.878670e-02
 1.000000e+00  1.553467e-02
 1.000000e+00  1.258929e-02
 1.000000e+00  9.951489e-03
 1.000000e+00  7.622077e-03
 1.000000e+00  5.601784e-03
 1.000000e+00  3.891239e-03
 1.000000e+00  2.490975e-03
 1.000000e+00  1.401428e-03
 1.000000e+00  6.229377e-04
 1.000000e+00  1.557466e-04
 1.000000e+00  0.000000e+00

 1.000000e+00  1.000000e+00
 1.000000e+00  9.823515e-01
 1.000000e+00  9.647085e-01
 1.000000e+00  9.470765e-01
 1.000000e+00  9.294610e-01
 1.000000e+00  9.118675e-01
 1.000000e+00  8.943014e-01
 1.000000e+00  8.767683e-01
 1.000000e+00  8.592735e-01
 1.000000e+00  8.418226e-01
 1.000000e+00  8.244209e-01
 1.000000e+00  8.070739e-01
 1.000000e+00  7.897871e-01
 1.000000e+00  7.725657e-01
 1.000000e+00  7.554151e-01
 1.000000e+00  7.383407e-01
 1.000000e+00  7.213479e-01
 1.000000e+00  7.044418e-01
 1.000000e+00  6.876278e-01
 1.000000e+00  6.709111e-01
 1.000000e+00  6.542969e-01
 1.000000e+00  6.377904e-01
 1.000000e+00  6.213968e-01
 1.000000e+00  6.051210e-01
 1.000000e+00  5.889683e-01
 1.000000e+00  5.729436e-01
 1.000000e+00  5.570519e-01
 1.000000e+00  5.412982e-01
 1.000000e+00  5.256873e-01
 1.000000e+00  5.102243e-01
 1.000000e+00  4.949137e-01
 1.000000e+00  4.797606e-01
 1.000000e+00  4.647694e-01
 1.000000e+00  4.499450e-01
 1.000000e+00  4.352919e-01
 1.000000e+00  4.208147e-01
 1.000000e+00  4.065180e-01
 1.000000e+00  3.924061e-01
 1.000000e+00  3.784834e-01
 1.000000e+00  3.647544e-01
 1.000000e+00  3.512232e-01
 1.000000e+00  3.378942e-01
 1.000000e+00  3.247713e-01
 1.000000e+00  3.118588e-01
 1.000000e+00  2.991607e-01
 1.000000e+00  2.866808e-01
 1.000000e+00  2.744232e-01
 1.000000e+00  2.623915e-01
 1.000000e+00  2.505897e-01
 1.000000e+00  2.390212e-01
 1.000000e+00  2.276898e-01
 1.000000e+00  2.165990e-01
 1.000000e+00  2.057522e-01
 1.000000e+00  1.951528e-01
 1.000000e+00  1.848041e-01
 1.000000e+00  1.747093e-01
 1.000000e+00  1.648716e-01
 1.000000e+00  1.552940e-01
 1.000000e+00  1.459796e-01
 1.000000e+00  1.369311e-01
 1.000000e+00  1.281515e-01
 1.000000e+00  1.196435e-01
 1.000000e+00  1.114098e-01
 1.000000e+00  1.034528e-01
 1.000000e+00  9.577503e-02
 1.000000e+00  8.837896e-02
 1.000000e+00  8.126686e-02
 1.000000e+00  7.444093e-02
 1.000000e+00  6.790331e-02
 1.000000e+00  6.165604e-02
 1.000000e+00  5.570105e-02
 1.000000e+00  5.004020e-02
 1.000000e+00  4.467526e-02
 1.000000e+00  3.960789e-02
 1.000000e+00  3.483968e-02
 1.000000e+00  3.037212e-02
 1.000000e+00  2.620658e-02
 1.000000e+00  2.234438e-02
 1.000000e+00  1.878670e-02
 1.000000e+00  1.553467e-02
 1.000000e+00  1.258929e-02
 1.000000e+00  9.951489e-03
 1.000000e+00  7.622077e-03
 1.000000e+00  5.601784e-03
 1.000000e+00  3.891239e-03
 1.000000e+00  2.490975e-03
 1.000000e+00  1.401428e-03
 1.000000e+00  6.229377e-04
 1.000000e+00  1.557466e-04
 1.000000e+00  0.000000e+00

 1.000000e+00  1.000000e+00
 1.000000e+00  9.823515e-01
 1.000000e+00  9.647085e-01
 1.000000e+00  9.470765e-01
 1.000000e+00  9.294610e-01
 1.000000e+00  9.118675e-01
 1.000000e+00  8.943014e-01
 1.000000e+00  8.767683e-01
 1.000000e+00  8.592735e-01
 1.000000e+00  8.418226e-01
 1.000000e+00  8.244209e-01
 1.000000e+00  8.070739e-01
 1.000000e+00  7.897871e-01
 1.000000e+00  7.725657e-01
 1.000000e+00  7.554151e-01
 1.000000e+00  7.383407e-01
 1.000000e+00  7.213479e-01
 1.000000e+00  7.044418e-01
 1.000000e+00  6.876278e-01
 1.000000e+00  6.709111e-01
 1.000000e+00  6.542969e-01
 1.000000e+00  6.377904e-01
 1.000000e+00  6.213968e-01
 1.000000e+00  6.051210e-01
 1.000000e+00  5.889683e-01
 1.000000e+00  5.729436e-01
 1.000000e+00  5.570519e-01
 1.000000e+00  5.412982e-01
 1.000000e+00  5.256873e-01
 1.000000e+00  5.102243e-01
 1.000000e+00  4.949137e-01
 1.000000e+00  4.797606e-01
 1.000000e+00  4.647694e-01
 1.000000e+00  4.499450e-01
 1.000000e+00  4.352919e-01
 1.000000e+00  4.208147e-01
 1.000000e+00  4.065180e-01
 1.000000e+00  3.924061e-01
 1.000000e+00  3.784834e-01
 1.000000e+00  3.647544e-01
 1.000000e+00  3.512232e-01
 1.000000e+00  3.378942e-01
 1.000000e+00  3.247713e-01
 1.000000e+00  3.118588e-01
 1.000000e+00  2.991607e-01
 1.000000e+00  2.866808e-01
 1.000000e+00  2.744232e-01
 1.000000e+00  2.623915e-01
 1.000000e+00  2.505897e-01
 1.000000e+00  2.390212e-01
 1.000000e+00  2.276898e-01
 1.000000e+00  2.165990e-01
 1.000000e+00  2.057522e-01
 1.000000e+00  1.951528e-01
 1.000000e+00  1.848041e-01
 1.000000e+00  1.747093e-01
 1.000000e+00  1.648716e-01
 1.000000e+00  1.552940e-01
 1.000000e+00  1.459796e-01
 1.000000e+00  1.369311e-01
 1.000000e+00  1.281515e-01
 1.000000e+00  1.196435e-01
 1.000000e+00  1.114098e-01
 1.000000e+00  1.034528e-01
 1.000000e+00  9.577503e-02
 1.000000e+00  8.837896e-02
 1.000000e+00  8.126686e-02
 1.000000e+00  7.444093e-02
 1.000000e+00  6.790331e-02
 1.000000e+00  6.165604e-02
 1.000000e+00  5.570105e-02
 1.000000e+00  5.004020e-02
 1.000000e+00  4.467526e-02
 1.000000e+00  3.960789e-02
 1.000000e+00  3.483968e-02
 1.000000e+00  3.037212e-02
 1.000000e+00  2.620658e-02
 1.000000e+00  2.234438e-02
 1.000000e+00  1.878670e-02
 1.000000e+00  1.553467e-02
 1.000000e+00  1.258929e-02
 1.000000e+00  9.951489e-03
 1.000000e+00  7.622077e-03
 1.000000e+00  5.601784e-03
 1.000000e+00  3.891239e-03
 1.000000e+00  2.490975e-03
 1.000000e+00  1.401428e-03
 1.000000e+00  6.229377e-04
 1.000000e+00  1.557466e-04
 1.000000e+00  0.000000e+00

 1.000000e+00  1.000000e+00
 1.000000e+00  9.823515e-01
 1.000000e+00  9.647085e-01
 1.000000e+00  9.470765e-01
 1.000000e+00  9.294610e-01
 1.000000e+00  9.118675e-01
 1.000000e+00  8.943014e-01
 1.000000e+00  8.767683e-01
 1.000000e+00  8.592735e-01
 1.000000e+00  8.418226e-01
 1.000000e+00  8.244209e-01
 1.000000e+00  8.070739e-01
 1.000000e+00  7.897871e-01
 1.000000e+00  7.725657e-01
 1.000000e+00  7.554151e-01
 1.000000e+00  7.383407e-01
 1.000000e+00  7.213479e-01
 1.000000e+00  7.044418e-01
 1.000000e+00  6.876278e-01
 1.000000e+00  6.709111e-01
 1.000000e+00  6.542969e-01
 1.000000e+00  6.377904e-01
 1.000000e+00  6.213968e-01
 1.000000e+00  6.051210e-01
 1.000000e+00  5.889683e-01
 1.000000e+00  5.729436e-01
 1.000000e+00  5.570519e-01
 1.000000e+00  5.412982e-01
 1.000000e+00  5.256873e-01
 1.000000e+00  5.102243e-01
 1.000000e+00  4.949137e-01
 1.000000e+00  4.797606e-01
 1.000000e+00  4.647694e-01
 1.000000e+00  4.499450e-01
 1.000000e+00  4.352919e-01
 1.000000e+00  4.208147e-01
 1.000000e+00  4.065180e-01
 1.000000e+00  3.924061e-01
 1.000000e+00  3.784834e-01
 1.000000e+00  3.647544e-01
 1.000000e+00  3.512232e-01
 1.000000e+00  3.378942e-01
 1.000000e+00  3.247713e-01
 1.000000e+00  3.118588e-01
 1.000000e+00  2.991607e-01
 1.000000e+00  2.866808e-01
 1.000000e+00  2.744232e-01
 1.000000e+00  2.623915e-01
 1.000000e+00  2.505897e-01
 1.000000e+00  2.390212e-01
 1.000000e+00  2.276898e-01
 1.000000e+00  2.165990e-01
 1.000000e+00  2.057522e-01
 1.000000e+00  1.951528e-01
 1.000000e+00  1.848041e-01
 1.000000e+00  1.747093e-01
 1.000000e+00  1.648716e-01
 1.000000e+00  1.552940e-01
 1.000000e+00  1.459796e-01
 1.000000e+00  1.369311e-01
 1.000000e+00  1.281515e-01
 1.000000e+00  1.196435e-01
 1.000000e+00  1.114098e-01
 1.000000e+00  1.034528e-01
 1.000000e+00  9.577503e-02
 1.000000e+00  8.837896e-02
 1.000000e+00  8.126686e-02
 1.000000e+00  7.444093e-02
 1.000000e+00  6.790331e-02
 1.000000e+00  6.165604e-02
 1.000000e+00  5.570105e-02
 1.000000e+00  5.004020e-02
 1.000000e+00  4.467526e-02
 1.000000e+00  3.960789e-02
 1.000000e+00  3.483968e-02
 1.000000e+00  3.037212e-02
 1.000000e+00  2.620658e-02
 1.000000e+00  2.234438e-02
 1.000000e+00  1.878670e-02
 1.000000e+00  1.553467e-02
 1.000000e+00  1.258929e-02
 1.000000e+00  9.951489e-03
 1.000000e+00  7.622077e-03
 1.000000e+00  5.601784e-03
 1.000000e+00  3.891239e-03
 1.000000e+00  2.490975e-03
 1.000000e+00  1.401428e-03
 1.000000e+00  6.229377e-04
 1.000000e+00  1.557466e-04
 1.000000e+00  0.000000e+00

 1.000000e+00  1.000000e+00
 1.000000e+00  9.823515e-01
 1.000000e+00  9.647085e-01
 1.000000e+00  9.470765e-01
 1.000000e+00  9.294610e-01
 1.000000e+00  9.118675e-01
 1.000000e+00  8.943014e-01
 1.000000e+00  8.767683e-01
 1.000000e+00  8.592735e-01
 1.000000e+00  8.418226e-01
 1.000000e+00  8.244209e-01
 1.000000e+00  8.070739e-01
 1.000000e+00  7.897871e-01
 1.000000e+00  7.725657e-01
 1.000000e+00  7.554151e-01
 1.000000e+00  7.383407e-01
 1.000000e+00  7.213479e-01
 1.000000e+00  7.044418e-01
 1.000000e+00  6.876278e-01
 1.000000e+00  6.709111e-01
 1.000000e+00  6.542969e-01
 1.000000e+00  6.377904e-01
 1.000000e+00  6.213968e-01
 1.000000e+00  6.051210e-01
 1.000000e+00  5.889683e-01
 1.000000e+00  5.729436e-01
 1.000000e+00  5.570519e-01
 1.000000e+00  5.412982e-01
 1.000000e+00  5.256873e-01
 1.000000e+00  5.102243e-01
 1.000000e+00  4.949137e-01
 1.000000e+00  4.797606e-01
 1.000000e+00  4.647694e-01
 1.000000e+00  4.499450e-01
 1.000000e+00  4.352919e-01
 1.000000e+00  4.208147e-01
 1.000000e+00  4.065180e-01
 1.000000e+00  3.924061e-01
 1.000000e+00  3.784834e-01
 1.000000e+00  3.647544e-01
 1.000000e+00  3.512232e-01
 1.000000e+00  3.378942e-01
 1.000000e+00  3.247713e-01
 1.000000e+00  3.118588e-01
 1.000000e+00  2.991607e-01
 1.000000e+00  2.866808e-01
 1.000000e+00  2.744232e-01
 1.000000e+00  2.623915e-01
 1.000000e+00  2.505897e-01
 1.000000e+00  2.390212e-01
 1.000000e+00  2.276898e-01
 1.000000e+00  2.165990e-01
 1.000000e+00  2.057522e-01
 1.000000e+00  1.951528e-01
 1.000000e+00  1.848041e-01
 1.000000e+00  1.747093e-01
 1.000000e+00  1.648716e-01
 1.000000e+00  1.552940e-01
 1.000000e+00  1.459796e-01
 1.000000e+00  1.369311e-01
 1.000000e+00  1.281515e-01
 1.000000e+00  1.196435e-01
 1.000000e+00  1.114098e-01
 1.000000e+00  1.034528e-01
 1.000000e+00  9.577503e-02
 1.000000e+00  8.837896e-02
 1.000000e+00  8.126686e-02
 1.000000e+00  7.444093e-02
 1.000000e+00  6.790331e-02
 1.000000e+00  6.165604e-02
 1.000000e+00  5.570105e-02
 1.000000e+00  5.004020e-02
 1.000000e+00  4.467526e-02
 1.000000e+00  3.960789e-02
 1.000000e+00  3.483968e-02
 1.000000e+00  3.037212e-02
 1.000000e+00  2.620658e-02
 1.000000e+00  2.234438e-02
 1.000000e+00  1.878670e-02
 1.000000e+00  1.553467e-02
 1.000000e+00  1.258929e-02
 1.000000e+00  9.951489e-03
 1.000000e+00  7.622077e-03
 1.000000e+00  5.601784e-03
 1.000000e+00  3.891239e-03
 1.000000e+00  2.490975e-03
 1.000000e+00  1.401428e-03
 1.000000e+00  6.229377e-04
 1.000000e+00  1.557466e-04
 1.000000e+00  0.000000e+00

 1.000000e+00  1.000000e+00
 1.000000e+00  9.823515e-01
 1.000000e+00  9.647085e-01
 1.000000e+00  9.470765e-01
 1.000000e+00  9.294610e-01
 1.000000e+00  9.118675e-01
 1.000000e+00  8.943014e-01
 1.000000e+00  8.767683e-01
 1.000000e+00  8.592735e-01
 1.000000e+00  8.418226e-01
 1.000000e+00  8.244209e-01
 1.000000e+00  8.070739e-01
 1.000000e+00  7.897871e-01
 1.000000e+00  7.725657e-01
 1.000000e+00  7.554151e-01
 1.000000e+00  7.383407e-01
 1.000000e+00  7.213479e-01
 1.000000e+00  7.044418e-01
 1.000000e+00  6.876278e-01
 1.000000e+00  6.709111e-01
 1.000000e+00  6.542969e-01
 1.000000e+00  6.377904e-01
 1.000000e+00  6.213968e-01
 1.000000e+00  6.051210e-01
 1.000000e+00  5.889683e-01
 1.000000e+00  5.729436e-01
 1.000000e+00  5.570519e-01
 1.000000e+00  5.412982e-01
 1.000000e+00  5.256873e-01
 1.000000e+00  5.102243e-01
 1.000000e+00  4.949137e-01
 1.000000e+00  4.797606e-01
 1.000000e+00  4.647694e-01
 1.000000e+00  4.499450e-01
 1.000000e+00  4.352919e-01
 1.000000e+00  4.208147e-01
 1.000000e+00  4.065180e-01
 1.000000e+00  3.924061e-01
 1.000000e+00  3.784834e-01
 1.000000e+00  3.647544e-01
 1.000000e+00  3.512232e-01
 1.000000e+00  3.378942e-01
 1.000000e+00  3.247713e-01
 1.000000e+00  3.118588e-01
 1.000000e+00  2.991607e-01
 1.000000e+00  2.866808e-01
 1.000000e+00  2.744232e-01
 1.000000e+00  2.623915e-01
 1.000000e+00  2.505897e-01
 1.000000e+00  2.390212e-01
 1.000000e+00  2.276898e-01
 1.000000e+00  2.165990e-01
 1.000000e+00  2.057522e-01
 1.000000e+00  1.951528e-01
 1.000000e+00  1.848041e-01
 1.000000e+00  1.747093e-01
 1.000000e+00  1.648716e-01
 1.000000e+00  1.552940e-01
 1.000000e+00  1.459796e-01
 1.000000e+00  1.369311e-01
 1.000000e+00  1.281515e-01
 1.000000e+00  1.196435e-01
 1.000000e+00  1.114098e-01
 1.000000e+00  1.034528e-01
 1.000000e+00  9.577503e-02
 1.000000e+00  8.837896e-02
 1.000000e+00  8.126686e-02
 1.000000e+00  7.444093e-02
 1.000000e+00  6.790331e-02
 1.000000e+00  6.165604e-02
 1.000000e+00  5.570105e-02
 1.000000e+00  5.004020e-02
 1.000000e+00  4.467526e-02
 1.000000e+00  3.960789e-02
 1.000000e+00  3.483968e-02
 1.000000e+00  3.037212e-02
 1.000000e+00  2.620658e-02
 1.000000e+00  2.234438e-02
 1.000000e+00  1.878670e-02
 1.000000e+00  1.553467e-02
 1.000000e+00  1.258929e-02
 1.000000e+00  9.951489e-03
 1.000000e+00  7.622077e-03
 1.000000e+00  5.601784e-03
 1.000000e+00  3.891239e-03
 1.000000e+00  2.490975e-03
 1.000000e+00  1.401428e-03
 1.000000e+00  6.229377e-04
 1.000000e+00  1.557466e-04
 1.000000e+00  0.000000e+00

 1.000000e+00  1.000000e+00
 1.000000e+00  9.823515e-01
 1.000000e+00  9.647085e-01
 1.000000e+00  9.470765e-01
 1.000000e+00  9.294610e-01
 1.000000e+00  9.118675e-01
 1.000000e+00  8.943014e-01
 1.000000e+00  8.767683e-01
 1.000000e+00  8.592735e-01
 1.000000e+00  8.418226e-01
 1.000000e+00  8.244209e-01
 1.000000e+00  8.070739e-01
 1.000000e+00  7.897871e-01
 1.000000e+00  7.725657e-01
 1.000000e+00  7.554151e-01
 1.000000e+00  7.383407e-01
 1.000000e+00  7.213479e-01
 1.000000e+00  7.044418e-01
 1.000000e+00  6.876278e-01
 1.000000e+00  6.709111e-01
 1.000000e+00  6.542969e-01
 1.000000e+00  6.377904e-01
 1.000000e+00  6.213968e-01
 1.000000e+00  6.051210e-01
 1.000000e+00  5.889683e-01
 1.000000e+00  5.729436e-01
 1.000000e+00  5.570519e-01
 1.000000e+00  5.412982e-01
 1.000000e+00  5.256873e-01
 1.000000e+00  5.102243e-01
 1.000000e+00  4.949137e-01
 1.000000e+00  4.797606e-01
 1.000000e+00  4.647694e-01
 1.000000e+00  4.499450e-01
 1.000000e+00  4.352919e-01
 1.000000e+00  4.208147e-01
 1.000000e+00  4.065180e-01
 1.000000e+00  3.924061e-01
 1.000000e+00  3.784834e-01
 1.000000e+00  3.647544e-01
 1.000000e+00  3.512232e-01
 1.000000e+00  3.378942e-01
 1.000000e+00  3.247713e-01
 1.000000e+00  3.118588e-01
 1.000000e+00  2.991607e-01
 1.000000e+00  2.866808e-01
 1.000000e+00  2.744232e-01
 1.000000e+00  2.623915e-01
 1.000000e+00  2.505897e-01
 1.000000e+00  2.390212e-01
 1.000000e+00  2.276898e-01
 1.000000e+00  2.165990e-01
 1.000000e+00  2.057522e-01
 1.000000e+00  1.951528e-01
 1.000000e+00  1.848041e-01
 1.000000e+00  1.747093e-01
 1.000000e+00  1.648716e-01
 1.000000e+00  1.552940e-01
 1.000000e+00  1.459796e-01
 1.000000e+00  1.369311e-01
 1.000000e+00  1.281515e-01
 1.000000e+00  1.196435e-01
 1.000000e+00  1.114098e-01
 1.000000e+00  1.034528e-01
 1.000000e+00  9.577503e-02
 1.000000e+00  8.837896e-02
 1.000000e+00  8.126686e-02
 1.000000e+00  7.444093e-02
 1.000000e+00  6.790331e-02
 1.000000e+00  6.165604e-02
 1.000000e+00  5.570105e-02
 1.000000e+00  5.004020e-02
 1.000000e+00  4.467526e-02
 1.000000e+00  3.960789e-02
 1.000000e+00  3.483968e-02
 1.000000e+00  3.037212e-02
 1.000000e+00  2.620658e-02
 1.000000e+00  2.234438e-02
 1.000000e+00  1.878670e-02
 1.000000e+00  1.553467e-02
 1.000000e+00  1.258929e-02
 1.000000e+00  9.951489e-03
 1.000000e+00  7.622077e-03
 1.000000e+00  5.601784e-03
 1.000000e+00  3.891239e-03
 1.000000e+00  2.490975e-03
 1.000000e+00  1.401428e-03
 1.000000e+00  6.229377e-04
 1.000000e+00  1.557466e-04
 1.000000e+00  0.000000e+00

 1.000000e+00  1.000000e+00
 1.000000e+00  9.823515e-01
 1.000000e+00  9.647085e-01
 1.000000e+00  9.470765e-01
 1.000000e+00  9.294610e-01
 1.000000e+00  9.118675e-01
 1.000000e+00  8.943014e-01
 1.000000e+00  8.767683e-01
 1.000000e+00  8.592735e-01
 1.000000e+00  8.418226e-01
 1.000000e+00  8.244209e-01
 1.000000e+00  8.070739e-01
 1.000000e+00  7.897871e-01
 1.000000e+00  7.725657e-01
 1.000000e+00  7.554151e-01
 1.000000e+00  7.383407e-01
 1.000000e+00  7.213479e-01
 1.000000e+00  7.044418e-01
 1.000000e+00  6.876278e-01
 1.000000e+00  6.709111e-01
 1.000000e+00  6.542969e-01
 1.000000e+00  6.377904e-01
 1.000000e+00  6.213968e-01
 1.000000e+00  6.051210e-01
 1.000000e+00  5.889683e-01
 1.000000e+00  5.729436e-01
 1.000000e+00  5.570519e-01
 1.000000e+00  5.412982e-01
 1.000000e+00  5.256873e-01
 1.000000e+00  5.102243e-01
 1.000000e+00  4.949137e-01
 1.000000e+00  4.797606e-01
 1.000000e+00  4.647694e-01
 1.000000e+00  4.499450e-01
 1.000000e+00  4.352919e-01
 1.000000e+00  4.208147e-01
 1.000000e+00  4.065180e-01
 1.000000e+00  3.924061e-01
 1.000000e+00  3.784834e-01
 1.000000e+00  3.647544e-01
 1.000000e+00  3.512232e-01
 1.000000e+00  3.378942e-01
 1.000000e+00  3.247713e-01
 1.000000e+00  3.118588e-01
 1.000000e+00  2.991607e-01
 1.000000e+00  2.866808e-01
 1.000000e+00  2.744232e-01
 1.000000e+00  2.623915e-01
 1.000000e+00  2.505897e-01
 1.000000e+00  2.390212e-01
 1.000000e+00  2.276898e-01
 1.000000e+00  2.165990e-01
 1.000000e+00  2.057522e-01
 1.000000e+00  1.951528e-01
 1.000000e+00  1.848041e-01
 1.000000e+00  1.747093e-01
 1.000000e+00  1.648716e-01
 1.000000e+00  1.552940e-01
 1.000000e+00  1.459796e-01
 1.000000e+00  1.369311e-01
 1.000000e+00  1.281515e-01
 1.000000e+00  1.196435e-01
 1.000000e+00  1.114098e-01
 1.000000e+00  1.034528e-01
 1.000000e+00  9.577503e-02
 1.000000e+00  8.837896e-02
 1.000000e+00  8.126686e-02
 1.000000e+00  7.444093e-02
 1.000000e+00  6.790331e-02
 1.000000e+00  6.165604e-02
 1.000000e+00  5.570105e-02
 1.000000e+00  5.004020e-02
 1.000000e+00  4.467526e-02
 1.000000e+00  3.960789e-02
 1.000000e+00  3.483968e-02
 1.000000e+00  3.037212e-02
 1.000000e+00  2.620658e-02
 1.000000e+00  2.234438e-02
 1.000000e+00  1.878670e-02
 1.000000e+00  1.553467e-02
 1.000000e+00  1.258929e-02
 1.000000e+00  9.951489e-03
 1.000000e+00  7.622077e-03
 1.000000e+00  5.601784e-03
 1.000000e+00  3.891239e-03
 1.000000e+00  2.490975e-03
 1.000000e+00  1.401428e-03
 1.000000e+00  6.229377e-04
 1.000000e+00  1.557466e-04
 1.000000e+00  0.000000e+00

 1.000000e+00  1.000000e+00
 1.000000e+00  9.823515e-01
 1.000000e+00  9.647085e-01
 1.000000e+00  9.470765e-01
 1.000000e+00  9.294610e-01
 1.000000e+00  9.118675e-01
 1.000000e+00  8.943014e-01
 1.000000e+00  8.767683e-01
 1.000000e+00  8.592735e-01
 1.000000e+00  8.418226e-01
 1.000000e+00  8.244209e-01
 1.000000e+00  8.070739e-01
 1.000000e+00  7.897871e-01
 1.000000e+00  7.725657e-01
 1.000000e+00  7.554151e-01
 1.000000e+00  7.383407e-01
 1.000000e+00  7.213479e-01
 1.000000e+00  7.044418e-01
 1.000000e+00  6.876278e-01
 1.000000e+00  6.709111e-01
 1.000000e+00  6.542969e-01
 1.000000e+00  6.377904e-01
 1.000000e+00  6.213968e-01
 1.000000e+00  6.051210e-01
 1.000000e+00  5.889683e-01
 1.000000e+00  5.729436e-01
 1.000000e+00  5.570519e-01
 1.000000e+00  5.412982e-01
 1.000000e+00  5.256873e-01
 1.000000e+00  5.102243e-01
 1.000000e+00  4.949137e-01
 1.000000e+00  4.797606e-01
 1.000000e+00  4.647694e-01
 1.000000e+00  4.499450e-01
 1.000000e+00  4.352919e-01
 1.000000e+00  4.208147e-01
 1.000000e+00  4.065180e-01
 1.000000e+00  3.924061e-01
 1.000000e+00  3.784834e-01
 1.000000e+00  3.647544e-01
 1.000000e+00  3.512232e-01
 1.000000e+00  3.378942e-01
 1.000000e+00  3.247713e-01
 1.000000e+00  3.118588e-01
 1.000000e+00  2.991607e-01
 1.000000e+00  2.866808e-01
 1.000000e+00  2.744232e-01
 1.000000e+00  2.623915e-01
 1.000000e+00  2.505897e-01
 1.000000e+00  2.390212e-01
 1.000000e+00  2.276898e-01
 1.000000e+00  2.165990e-01
 1.000000e+00  2.057522e-01
 1.000000e+00  1.951528e-01
 1.000000e+00  1.848041e-01
 1.000000e+00  1.747093e-01
 1.000000e+00  1.648716e-01
 1.000000e+00  1.552940e-01
 1.000000e+00  1.459796e-01
 1.000000e+00  1.369311e-01
 1.000000e+00  1.281515e-01
 1.000000e+00  1.196435e-01
 1.000000e+00  1.114098e-01
 1.000000e+00  1.034528e-01
 1.000000e+00  9.577503e-02
 1.000000e+00  8.837896e-02
 1.000000e+00  8.126686e-02
 1.000000e+00  7.444093e-02
 1.000000e+00  6.790331e-02
 1.000000e+00  6.165604e-02
 1.000000e+00  5.570105e-02
 1.000000e+00  5.004020e-02
 1.000000e+00  4.467526e-02
 1.000000e+00  3.960789e-02
 1.000000e+00  3.483968e-02
 1.000000e+00  3.037212e-02
 1.000000e+00  2.620658e-02
 1.000000e+00  2.234438e-02
 1.000000e+00  1.878670e-02
 1.000000e+00  1.553467e-02
 1.000000e+00  1.258929e-02
 1.000000e+00  9.951489e-03
 1.000000e+00  7.622077e-03
 1.000000e+00  5.601784e-03
 1.000000e+00  3.891239e-03
 1.000000e+00  2.490975e-03
 1.000000e+00  1.401428e-03
 1.000000e+00  6.229377e-04
 1.000000e+00  1.557466e-04
 1.000000e+00  0.000000e+00

 1.000000e+00  1.000000e+00
 1.000000e+00  9.823515e-01
 1.000000e+00  9.647085e-01
 1.000000e+00  9.470765e-01
 1.000000e+00  9.294610e-01
 1.000000e+00  9.118675e-01
 1.000000e+00  8.943014e-01
 1.000000e+00  8.767683e-01
 1.000000e+00  8.592735e-01
 1.000000e+00  8.418226e-01
 1.000000e+00  8.244209e-01
 1.000000e+00  8.070739e-01
 1.000000e+00  7.897871e-01
 1.000000e+00  7.725657e-01
 1.000000e+00  7.554151e-01
 1.000000e+00  7.383407e-01
 1.000000e+00  7.213479e-01
 1.000000e+00  7.044418e-01
 1.000000e+00  6.876278e-01
 1.000000e+00  6.709111e-01
 1.000000e+00  6.542969e-01
 1.000000e+00  6.377904e-01
 1.000000e+00  6.213968e-01
 1.000000e+00  6.051210e-01
 1.000000e+00  5.889683e-01
 1.000000e+00  5.729436e-01
 1.000000e+00  5.570519e-01
 1.000000e+00  5.412982e-01
 1.000000e+00  5.256873e-01
 1.000000e+00  5.102243e-01
 1.000000e+00  4.949137e-01
 1.000000e+00  4.797606e-01
 1.000000e+00  4.647694e-01
 1.000000e+00  4.499450e-01
 1.000000e+00  4.352919e-01
 1.000000e+00  4.208147e-01
 1.000000e+00  4.065180e-01
 1.000000e+00  3.924061e-01
 1.000000e+00  3.784834e-01
 1.000000e+00  3.647544e-01
 1.000000e+00  3.512232e-01
 1.000000e+00  3.378942e-01
 1.000000e+00  3.247713e-01
 1.000000e+00  3.118588e-01
 1.000000e+00  2.991607e-01
 1.000000e+00  2.866808e-01
 1.000000e+00  2.744232e-01
 1.000000e+00  2.623915e-01
 1.000000e+00  2.505897e-01
 1.000000e+00  2.390212e-01
 1.000000e+00  2.276898e-01
 1.000000e+00  2.165990e-01
 1.000000e+00  2.057522e-01
 1.000000e+00  1.951528e-01
 1.000000e+00  1.848041e-01
 1.000000e+00  1.747093e-01
 1.000000e+00  1.648716e-01
 1.000000e+00  1.552940e-01
 1.000000e+00  1.459796e-01
 1.000000e+00  1.369311e-01
 1.000000e+00  1.281515e-01
 1.000000e+00  1.196435e-01
 1.000000e+00  1.114098e-01
 1.000000e+00  1.034528e-01
 1.000000e+00  9.577503e-02
 1.000000e+00  8.837896e-02
 1.000000e+00  8.126686e-02
 1.000000e+00  7.444093e-02
 1.000000e+00  6.790331e-02
 1.000000e+00  6.165604e-02
 1.000000e+00  5.570105e-02
 1.000000e+00  5.004020e-02
 1.000000e+00  4.467526e-02
 1.000000e+00  3.960789e-02
 1.000000e+00  3.483968e-02
 1.000000e+00  3.037212e-02
 1.000000e+00  2.620658e-02
 1.000000e+00  2.234438e-02
 1.000000e+00  1.878670e-02
 1.000000e+00  1.553467e-02
 1.000000e+00  1.258929e-02
 1.000000e+00  9.951489e-03
 1.000000e+00  7.622077e-03
 1.000000e+00  5.601784e-03
 1.000000e+00  3.891239e-03
 1.000000e+00  2.490975e-03
 1.000000e+00  1.401428e-03
 1.000000e+00  6.229377e-04
 1.000000e+00  1.557466e-04
 1.000000e+00  0.000000e+00

 1.000000e+00  1.000000e+00
 1.000000e+00  9.823515e-01
 1.000000e+00  9.647085e-01
 1.000000e+00  9.470765e-01
 1.000000e+00  9.294610e-01
 1.000000e+00  9.118675e-01
 1.000000e+00  8.943014e-01
 1.000000e+00  8.767683e-01
 1.000000e+00  8.592735e-01
 1.000000e+00  8.418226e-01
 1.000000e+00  8.244209e-01
 1.000000e+00  8.070739e-01
 1.000000e+00  7.897871e-01
 1.000000e+00  7.725657e-01
 1.000000e+00  7.554151e-01
 1.000000e+00  7.383407e-01
 1.000000e+00  7.213479e-01
 1.000000e+00  7.044418e-01
 1.000000e+00  6.876278e-01
 1.000000e+00  6.709111e-01
 1.000000e+00  6.542969e-01
 1.000000e+00  6.377904e-01
 1.000000e+00  6.213968e-01
 1.000000e+00  6.051210e-01
 1.000000e+00  5.889683e-01
 1.000000e+00  5.729436e-01
 1.000000e+00  5.570519e-01
 1.000000e+00  5.412982e-01
 1.000000e+00  5.256873e-01
 1.000000e+00  5.102243e-01
 1.000000e+00  4.949137e-01
 1.000000e+00  4.797606e-01
 1.000000e+00  4.647694e-01
 1.000000e+00  4.499450e-01
 1.000000e+00  4.352919e-01
 1.000000e+00  4.208147e-01
 1.000000e+00  4.065180e-01
 1.000000e+00  3.924061e-01
 1.000000e+00  3.784834e-01
 1.000000e+00  3.647544e-01
 1.000000e+00  3.512232e-01
 1.000000e+00  3.378942e-01
 1.000000e+00  3.247713e-01
 1.000000e+00  3.118588e-01
 1.000000e+00  2.991607e-01
 1.000000e+00  2.866808e-01
 1.000000e+00  2.744232e-01
 1.000000e+00  2.623915e-01
 1.000000e+00  2.505897e-01
 1.000000e+00  2.390212e-01
 1.000000e+00  2.276898e-01
 1.000000e+00  2.165990e-01
 1.000000e+00  2.057522e-01
 1.000000e+00  1.951528e-01
 1.000000e+00  1.848041e-01
 1.000000e+00  1.747093e-01
 1.000000e+00  1.648716e-01
 1.000000e+00  1.552940e-01
 1.000000e+00  1.459796e-01
 1.000000e+00  1.369311e-01
 1.000000e+00  1.281515e-01
 1.000000e+00  1.196435e-01
 1.000000e+00  1.114098e-01
 1.000000e+00  1.034528e-01
 1.000000e+00  9.577503e-02
 1.000000e+00  8.837896e-02
 1.000000e+00  8.126686e-02
 1.000000e+00  7.444093e-02
 1.000000e+00  6.790331e-02
 1.000000e+00  6.165604e-02
 1.000000e+00  5.570105e-02
 1.000000e+00  5.004020e-02
 1.000000e+00  4.467526e-02
 1.000000e+00  3.960789e-02
 1.000000e+00  3.483968e-02
 1.000000e+00  3.037212e-02
 1.000000e+00  2.620658e-02
 1.000000e+00  2.234438e-02
 1.000000e+00  1.878670e-02
 1.000000e+00  1.553467e-02
 1.000000e+00  1.258929e-02
 1.000000e+00  9.951489e-03
 1.000000e+00  7.622077e-03
 1.000000e+00  5.601784e-03
 1.000000e+00  3.891239e-03
 1.000000e+00  2.490975e-03
 1.000000e+00  1.401428e-03
 1.000000e+00  6.229377e-04
 1.000000e+00  1.557466e-04
 1.000000e+00  0.000000e+00

 1.000000e+00  1.000000e+00
 1.000000e+00  9.823515e-01
 1.000000e+00  9.647085e-01
 1.000000e+00  9.470765e-01
 1.000000e+00  9.294610e-01
 1.000000e+00  9.118675e-01
 1.000000e+00  8.943014e-01
 1.000000e+00  8.767683e-01
 1.000000e+00  8.592735e-01
 1.000000e+00  8.418226e-01
 1.000000e+00  8.244209e-01
 1.000000e+00  8.070739e-01
 1.000000e+00  7.897871e-01
 1.000000e+00  7.725657e-01
 1.000000e+00  7.554151e-01
 1.000000e+00  7.383407e-01
 1.000000e+00  7.213479e-01
 1.000000e+00  7.044418e-01
 1.000000e+00  6.876278e-01
 1.000000e+00  6.709111e-01
 1.000000e+00  6.542969e-01
 1.000000e+00  6.377904e-01
 1.000000e+00  6.213968e-01
 1.000000e+00  6.051210e-01
 1.000000e+00  5.889683e-01
 1.000000e+00  5.729436e-01
 1.000000e+00  5.570519e-01
 1.000000e+00  5.412982e-01
 1.000000e+00  5.256873e-01
 1.000000e+00  5.102243e-01
 1.000000e+00  4.949137e-01
 1.000000e+00  4.797606e-01
 1.000000e+00  4.647694e-01
 1.000000e+00  4.499450e-01
 1.000000e+00  4.352919e-01
 1.000000e+00  4.208147e-01
 1.000000e+00  4.065180e-01
 1.000000e+00  3.924061e-01
 1.000000e+00  3.784834e-01
 1.000000e+00  3.647544e-01
 1.000000e+00  3.512232e-01
 1.000000e+00  3.378942e-01
 1.000000e+00  3.247713e-01
 1.000000e+00  3.118588e-01
 1.000000e+00  2.991607e-01
 1.000000e+00  2.866808e-01
 1.000000e+00  2.744232e-01
 1.000000e+00  2.623915e-01
 1.000000e+00  2.505897e-01
 1.000000e+00  2.390212e-01
 1.000000e+00  2.276898e-01
 1.000000e+00  2.165990e-01
 1.000000e+00  2.057522e-01
 1.000000e+00  1.951528e-01
 1.000000e+00  1.848041e-01
 1.000000e+00  1.747093e-01
 1.000000e+00  1.648716e-01
 1.000000e+00  1.552940e-01
 1.000000e+00  1.459796e-01
 1.000000e+00  1.369311e-01
 1.000000e+00  1.281515e-01
 1.000000e+00  1.196435e-01
 1.000000e+00  1.114098e-01
 1.000000e+00  1.034528e-01
 1.000000e+00  9.577503e-02
 1.000000e+00  8.837896e-02
 1.000000e+00  8.126686e-02
 1.000000e+00  7.444093e-02
 1.000000e+00  6.790331e-02
 1.000000e+00  6.165604e-02
 1.000000e+00  5.570105e-02
 1.000000e+00  5.004020e-02
 1.000000e+00  4.467526e-02
 1.000000e+00  3.960789e-02
 1.000000e+00  3.483968e-02
 1.000000e+00  3.037212e-02
 1.000000e+00  2.620658e-02
 1.000000e+00  2.234438e-02
 1.000000e+00  1.878670e-02
 1.000000e+00  1.553467e-02
 1.000000e+00  1.258929e-02
 1.000000e+00  9.951489e-03
 1.000000e+00  7.622077e-03
 1.000000e+00  5.601784e-03
 1.000000e+00  3.891239e-03
 1.000000e+00  2.490975e-03
 1.000000e+00  1.401428e-03
 1.000000e+00  6.229377e-04
 1.000000e+00  1.557466e-04
 1.000000e+00  0.000000e+00

 1.000000e+00  1.000000e+00
 1.000000e+00  9.823515e-01
 1.000000e+00  9.647085e-01
 1.000000e+00  9.470765e-01
 1.000000e+00  9.294610e-01
 1.000000e+00  9.118675e-01
 1.000000e+00  8.943014e-01
 1.000000e+00  8.767683e-01
 1.000000e+00  8.592735e-01
 1.000000e+00  8.418226e-01
 1.000000e+00  8.244209e-01
 1.000000e+00  8.070739e-01
 1.000000e+00  7.897871e-01
 1.000000e+00  7.725657e-01
 1.000000e+00  7.554151e-01
 1.000000e+00  7.383407e-01
 1.000000e+00  7.213479e-01
 1.000000e+00  7.044418e-01
 1.000000e+00  6.876278e-01
 1.000000e+00  6.709111e-01
 1.000000e+00  6.542969e-01
 1.000000e+00  6.377904e-01
 1.000000e+00  6.213968e-01
 1.000000e+00  6.051210e-01
 1.000000e+00  5.889683e-01
 1.000000e+00  5.729436e-01
 1.000000e+00  5.570519e-01
 1.000000e+00  5.412982e-01
 1.000000e+00  5.256873e-01
 1.000000e+00  5.102243e-01
 1.000000e+00  4.949137e-01
 1.000000e+00  4.797606e-01
 1.000000e+00  4.647694e-01
 1.000000e+00  4.499450e-01
 1.000000e+00  4.352919e-01
 1.000000e+00  4.208147e-01
 1.000000e+00  4.065180e-01
 1.000000e+00  3.924061e-01
 1.000000e+00  3.784834e-01
 1.000000e+00  3.647544e-01
 1.000000e+00  3.512232e-01
 1.000000e+00  3.378942e-01
 1.000000e+00  3.247713e-01
 1.000000e+00  3.118588e-01
 1.000000e+00  2.991607e-01
 1.000000e+00  2.866808e-01
 1.000000e+00  2.744232e-01
 1.000000e+00  2.623915e-01
 1.000000e+00  2.505897e-01
 1.000000e+00  2.390212e-01
 1.000000e+00  2.276898e-01
 1.000000e+00  2.165990e-01
 1.000000e+00  2.057522e-01
 1.000000e+00  1.951528e-01
 1.000000e+00  1.848041e-01
 1.000000e+00  1.747093e-01
 1.000000e+00  1.648716e-01
 1.000000e+00  1.552940e-01
 1.000000e+00  1.459796e-01
 1.000000e+00  1.369311e-01
 1.000000e+00  1.281515e-01
 1.000000e+00  1.196435e-01
 1.000000e+00  1.114098e-01
 1.000000e+00  1.034528e-01
 1.000000e+00  9.577503e-02
 1.000000e+00  8.837896e-02
 1.000000e+00  8.126686e-02
 1.000000e+00  7.444093e-02
 1.000000e+00  6.790331e-02
 1.000000e+00  6.165604e-02
 1.000000e+00  5.570105e-02
 1.000000e+00  5.004020e-02
 1.000000e+00  4.467526e-02
 1.000000e+00  3.960789e-02
 1.000000e+00  3.483968e-02
 1.000000e+00  3.037212e-02
 1.000000e+00  2.620658e-02
 1.000000e+00  2.234438e-02
 1.000000e+00  1.878670e-02
 1.000000e+00  1.553467e-02
 1.000000e+00  1.258929e-02
 1.000000e+00  9.951489e-03
 1.000000e+00  7.622077e-03
 1.000000e+00  5.601784e-03
 1.000000e+00  3.891239e-03
 1.000000e+00  2.490975e-03
 1.000000e+00  1.401428e-03
 1.000000e+00  6.229377e-04
 1.000000e+00  1.557466e-04
 1.000000e+00  0.000000e+00

 1.000000e+00  1.000000e+00
 1.000000e+00  9.823515e-01
 1.000000e+00  9.647085e-01
 1.000000e+00  9.470765e-01
 1.000000e+00  9.294610e-01
 1.000000e+00  9.118675e-01
 1.000000e+00  8.943014e-01
 1.000000e+00  8.767683e-01
 1.000000e+00  8.592735e-01
 1.000000e+00  8.418226e-01
 1.000000e+00  8.244209e-01
 1.000000e+00  8.070739e-01
 1.000000e+00  7.897871e-01
 1.000000e+00  7.725657e-01
 1.000000e+00  7.554151e-01
 1.000000e+00  7.383407e-01
 1.000000e+00  7.213479e-01
 1.000000e+00  7.044418e-01
 1.000000e+00  6.876278e-01
 1.000000e+00  6.709111e-01
 1.000000e+00  6.542969e-01
 1.000000e+00  6.377904e-01
 1.000000e+00  6.213968e-01
 1.000000e+00  6.051210e-01
 1.000000e+00  5.889683e-01
 1.000000e+00  5.729436e-01
 1.000000e+00  5.570519e-01
 1.000000e+00  5.412982e-01
 1.000000e+00  5.256873e-01
 1.000000e+00  5.102243e-01
 1.000000e+00  4.949137e-01
 1.000000e+00  4.797606e-01
 1.000000e+00  4.647694e-01
 1.000000e+00  4.499450e-01
 1.000000e+00  4.352919e-01
 1.000000e+00  4.208147e-01
 1.000000e+00  4.065180e-01
 1.000000e+00  3.924061e-01
 1.000000e+00  3.784834e-01
 1.000000e+00  3.647544e-01
 1.000000e+00  3.512232e-01
 1.000000e+00  3.378942e-01
 1.000000e+00  3.247713e-01
 1.000000e+00  3.118588e-01
 1.000000e+00  2.991607e-01
 1.000000e+00  2.866808e-01
 1.000000e+00  2.744232e-01
 1.000000e+00  2.623915e-01
 1.000000e+00  2.505897e-01
 1.000000e+00  2.390212e-01
 1.000000e+00  2.276898e-01
 1.000000e+00  2.165990e-01
 1.000000e+00  2.057522e-01
 1.000000e+00  1.951528e-01
 1.000000e+00  1.848041e-01
 1.000000e+00  1.747093e-01
 1.000000e+00  1.648716e-01
 1.000000e+00  1.552940e-01
 1.000000e+00  1.459796e-01
 1.000000e+00  1.369311e-01
 1.000000e+00  1.281515e-01
 1.000000e+00  1.196435e-01
 1.000000e+00  1.114098e-01
 1.000000e+00  1.034528e-01
 1.000000e+00  9.577503e-02
 1.000000e+00  8.837896e-02
 1.000000e+00  8.126686e-02
 1.000000e+00  7.444093e-02
 1.000000e+00  6.790331e-02
 1.000000e+00  6.165604e-02
 1.000000e+00  5.570105e-02
 1.000000e+00  5.004020e-02
 1.000000e+00  4.467526e-02
 1.000000e+00  3.960789e-02
 1.000000e+00  3.483968e-02
 1.000000e+00  3.037212e-02
 1.000000e+00  2.620658e-02
 1.000000e+00  2.234438e-02
 1.000000e+00  1.878670e-02
 1.000000e+00  1.553467e-02
 1.000000e+00  1.258929e-02
 1.000000e+00  9.951489e-03
 1.000000e+00  7.622077e-03
 1.000000e+00  5.601784e-03
 1.000000e+00  3.891239e-03
 1.000000e+00  2.490975e-03
 1.000000e+00  1.401428e-03
 1.000000e+00  6.229377e-04
 1.000000e+00  1.557466e-04
 1.000000e+00  0.000000e+00

 1.000000e+00  1.000000e+00
 1.000000e+00  9.823515e-01
 1.000000e+00  9.647085e-01
 1.000000e+00  9.470765e-01
 1.000000e+00  9.294610e-01
 1.000000e+00  9.118675e-01
 1.000000e+00  8.943014e-01
 1.000000e+00  8.767683e-01
 1.000000e+00  8.592735e-01
 1.000000e+00  8.418226e-01
 1.000000e+00  8.244209e-01
 1.000000e+00  8.070739e-01
 1.000000e+00  7.897871e-01
 1.000000e+00  7.725657e-01
 1.000000e+00  7.554151e-01
 1.000000e+00  7.383407e-01
 1.000000e+00  7.213479e-01
 1.000000e+00  7.044418e-01
 1.000000e+00  6.876278e-01
 1.000000e+00  6.709111e-01
 1.000000e+00  6.542969e-01
 1.000000e+00  6.377904e-01
 1.000000e+00  6.213968e-01
 1.000000e+00  6.051210e-01
 1.000000e+00  5.889683e-01
 1.000000e+00  5.729436e-01
 1.000000e+00  5.570519e-01
 1.000000e+00  5.412982e-01
 1.000000e+00  5.256873e-01
 1.000000e+00  5.102243e-01
 1.000000e+00  4.949137e-01
 1.000000e+00  4.797606e-01
 1.000000e+00  4.647694e-01
 1.000000e+00  4.499450e-01
 1.000000e+00  4.352919e-01
 1.000000e+00  4.208147e-01
 1.000000e+00  4.065180e-01
 1.000000e+00  3.924061e-01
 1.000000e+00  3.784834e-01
 1.000000e+00  3.647544e-01
 1.000000e+00  3.512232e-01
 1.000000e+00  3.378942e-01
 1.000000e+00  3.247713e-01
 1.000000e+00  3.118588e-01
 1.000000e+00  2.991607e-01
 1.000000e+00  2.866808e-01
 1.000000e+00  2.744232e-01
 1.000000e+00  2.623915e-01
 1.000000e+00  2.505897e-01
 1.000000e+00  2.390212e-01
 1.000000e+00  2.276898e-01
 1.000000e+00  2.165990e-01
 1.000000e+00  2.057522e-01
 1.000000e+00  1.951528e-01
 1.000000e+00  1.848041e-01
 1.000000e+00  1.747093e-01
 1.000000e+00  1.648716e-01
 1.000000e+00  1.552940e-01
 1.000000e+00  1.459796e-01
 1.000000e+00  1.369311e-01
 1.000000e+00  1.281515e-01
 1.000000e+00  1.196435e-01
 1.000000e+00  1.114098e-01
 1.000000e+00  1.034528e-01
 1.000000e+00  9.577503e-02
 1.000000e+00  8.837896e-02
 1.000000e+00  8.126686e-02
 1.000000e+00  7.444093e-02
 1.000000e+00  6.790331e-02
 1.000000e+00  6.165604e-02
 1.000000e+00  5.570105e-02
 1.000000e+00  5.004020e-02
 1.000000e+00  4.467526e-02
 1.000000e+00  3.960789e-02
 1.000000e+00  3.483968e-02
 1.000000e+00  3.037212e-02
 1.000000e+00  2.620658e-02
 1.000000e+00  2.234438e-02
 1.000000e+00  1.878670e-02
 1.000000e+00  1.553467e-02
 1.000000e+00  1.258929e-02
 1.000000e+00  9.951489e-03
 1.000000e+00  7.622077e-03
 1.000000e+00  5.601784e-03
 1.000000e+00  3.891239e-03
 1.000000e+00  2.490975e-03
 1.000000e+00  1.401428e-03
 1.000000e+00  6.229377e-04
 1.000000e+00  1.557466e-04
 1.000000e+00  0.000000e+00

 1.000000e+00  1.000000e+00
 1.000000e+00  9.823515e-01
 1.000000e+00  9.647085e-01
 1.000000e+00  9.470765e-01
 1.000000e+00  9.294610e-01
 1.000000e+00  9.118675e-01
 1.000000e+00  8.943014e-01
 1.000000e+00  8.767683e-01
 1.000000e+00  8.592735e-01
 1.000000e+00  8.418226e-01
 1.000000e+00  8.244209e-01
 1.000000e+00  8.070739e-01
 1.000000e+00  7.897871e-01
 1.000000e+00  7.725657e-01
 1.000000e+00  7.554151e-01
 1.000000e+00  7.383407e-01
 1.000000e+00  7.213479e-01
 1.000000e+00  7.044418e-01
 1.000000e+00  6.876278e-01
 1.000000e+00  6.709111e-01
 1.000000e+00  6.542969e-01
 1.000000e+00  6.377904e-01
 1.000000e+00  6.213968e-01
 1.000000e+00  6.051210e-01
 1.000000e+00  5.889683e-01
 1.000000e+00  5.729436e-01
 1.000000e+00  5.570519e-01
 1.000000e+00  5.412982e-01
 1.000000e+00  5.256873e-01
 1.000000e+00  5.102243e-01
 1.000000e+00  4.949137e-01
 1.000000e+00  4.797606e-01
 1.000000e+00  4.647694e-01
 1.000000e+00  4.499450e-01
 1.000000e+00  4.352919e-01
 1.000000e+00  4.208147e-01
 1.000000e+00  4.065180e-01
 1.000000e+00  3.924061e-01
 1.000000e+00  3.784834e-01
 1.000000e+00  3.647544e-01
 1.000000e+00  3.512232e-01
 1.000000e+00  3.378942e-01
 1.000000e+00  3.247713e-01
 1.000000e+00  3.118588e-01
 1.000000e+00  2.991607e-01
 1.000000e+00  2.866808e-01
 1.000000e+00  2.744232e-01
 1.000000e+00  2.623915e-01
 1.000000e+00  2.505897e-01
 1.000000e+00  2.390212e-01
 1.000000e+00  2.276898e-01
 1.000000e+00  2.165990e-01
 1.000000e+00  2.057522e-01
 1.000000e+00  1.951528e-01
 1.000000e+00  1.848041e-01
 1.000000e+00  1.747093e-01
 1.000000e+00  1.648716e-01
 1.000000e+00  1.552940e-01
 1.000000e+00  1.459796e-01
 1.000000e+00  1.369311e-01
 1.000000e+00  1.281515e-01
 1.000000e+00  1.196435e-01
 1.000000e+00  1.114098e-01
 1.000000e+00  1.034528e-01
 1.000000e+00  9.577503e-02
 1.000000e+00  8.837896e-02
 1.000000e+00  8.126686e-02
 1.000000e+00  7.444093e-02
 1.000000e+00  6.790331e-02
 1.000000e+00  6.165604e-02
 1.000000e+00  5.570105e-02
 1.000000e+00  5.004020e-02
 1.000000e+00  4.467526e-02
 1.000000e+00  3.960789e-02
 1.000000e+00  3.483968e-02
 1.000000e+00  3.037212e-02
 1.000000e+00  2.620658e-02
 1.000000e+00  2.234438e-02
 1.000000e+00  1.878670e-02
 1.000000e+00  1.553467e-02
 1.000000e+00  1.258929e-02
 1.000000e+00  9.951489e-03
 1.000000e+00  7.622077e-03
 1.000000e+00  5.601784e-03
 1.000000e+00  3.891239e-03
 1.000000e+00  2.490975e-03
 1.000000e+00  1.401428e-03
 1.000000e+00  6.229377e-04
 1.000000e+00  1.557466e-04
 1.000000e+00  0.000000e+00

 1.000000e+00  1.000000e+00
 1.000000e+00  9.823515e-01
 1.000000e+00  9.647085e-01
 1.000000e+00  9.470765e-01
 1.000000e+00  9.294610e-01
 1.000000e+00  9.118675e-01
 1.000000e+00  8.943014e-01
 1.000000e+00  8.767683e-01
 1.000000e+00  8.592735e-01
 1.000000e+00  8.418226e-01
 1.000000e+00  8.244209e-01
 1.000000e+00  8.070739e-01
 1.000000e+00  7.897871e-01
 1.000000e+00  7.725657e-01
 1.000000e+00  7.554151e-01
 1.000000e+00  7.383407e-01
 1.000000e+00  7.213479e-01
 1.000000e+00  7.044418e-01
 1.000000e+00  6.876278e-01
 1.000000e+00  6.709111e-01
 1.000000e+00  6.542969e-01
 1.000000e+00  6.377904e-01
 1.000000e+00  6.213968e-01
 1.000000e+00  6.051210e-01
 1.000000e+00  5.889683e-01
 1.000000e+00  5.729436e-01
 1.000000e+00  5.570519e-01
 1.000000e+00  5.412982e-01
 1.000000e+00  5.256873e-01
 1.000000e+00  5.102243e-01
 1.000000e+00  4.949137e-01
 1.000000e+00  4.797606e-01
 1.000000e+00  4.647694e-01
 1.000000e+00  4.499450e-01
 1.000000e+00  4.352919e-01
 1.000000e+00  4.208147e-01
 1.000000e+00  4.065180e-01
 1.000000e+00  3.924061e-01
 1.000000e+00  3.784834e-01
 1.000000e+00  3.647544e-01
 1.000000e+00  3.512232e-01
 1.000000e+00  3.378942e-01
 1.000000e+00  3.247713e-01
 1.000000e+00  3.118588e-01
 1.000000e+00  2.991607e-01
 1.000000e+00  2.866808e-01
 1.000000e+00  2.744232e-01
 1.000000e+00  2.623915e-01
 1.000000e+00  2.505897e-01
 1.000000e+00  2.390212e-01
 1.000000e+00  2.276898e-01
 1.000000e+00  2.165990e-01
 1.000000e+00  2.057522e-01
 1.000000e+00  1.951528e-01
 1.000000e+00  1.848041e-01
 1.000000e+00  1.747093e-01
 1.000000e+00  1.648716e-01
 1.000000e+00  1.552940e-01
 1.000000e+00  1.459796e-01
 1.000000e+00  1.369311e-01
 1.000000e+00  1.281515e-01
 1.000000e+00  1.196435e-01
 1.000000e+00  1.114098e-01
 1.000000e+00  1.034528e-01
 1.000000e+00  9.577503e-02
 1.000000e+00  8.837896e-02
 1.000000e+00  8.126686e-02
 1.000000e+00  7.444093e-02
 1.000000e+00  6.790331e-02
 1.000000e+00  6.165604e-02
 1.000000e+00  5.570105e-02
 1.000000e+00  5.004020e-02
 1.000000e+00  4.467526e-02
 1.000000e+00  3.960789e-02
 1.000000e+00  3.483968e-02
 1.000000e+00  3.037212e-02
 1.000000e+00  2.620658e-02
 1.000000e+00  2.234438e-02
 1.000000e+00  1.878670e-02
 1.000000e+00  1.553467e-02
 1.000000e+00  1.258929e-02
 1.000000e+00  9.951489e-03
 1.000000e+00  7.622077e-03
 1.000000e+00  5.601784e-03
 1.000000e+00  3.891239e-03
 1.000000e+00  2.490975e-03
 1.000000e+00  1.401428e-03
 1.000000e+00  6.229377e-04
 1.000000e+00  1.557466e-04
 1.000000e+00  0.000000e+00

 1.000000e+00  1.000000e+00
 1.000000e+00  9.823515e-01
 1.000000e+00  9.647085e-01
 1.000000e+00  9.470765e-01
 1.000000e+00  9.294610e-01
 1.000000e+00  9.118675e-01
 1.000000e+00  8.943014e-01
 1.000000e+00  8.767683e-01
 1.000000e+00  8.592735e-01
 1.000000e+00  8.418226e-01
 1.000000e+00  8.244209e-01
 1.000000e+00  8.070739e-01
 1.000000e+00  7.897871e-01
 1.000000e+00  7.725657e-01
 1.000000e+00  7.554151e-01
 1.000000e+00  7.383407e-01
 1.000000e+00  7.213479e-01
 1.000000e+00  7.044418e-01
 1.000000e+00  6.876278e-01
 1.000000e+00  6.709111e-01
 1.000000e+00  6.542969e-01
 1.000000e+00  6.377904e-01
 1.000000e+00  6.213968e-01
 1.000000e+00  6.051210e-01
 1.000000e+00  5.889683e-01
 1.000000e+00  5.729436e-01
 1.000000e+00  5.570519e-01
 1.000000e+00  5.412982e-01
 1.000000e+00  5.256873e-01
 1.000000e+00  5.102243e-01
 1.000000e+00  4.949137e-01
 1.000000e+00  4.797606e-01
 1.000000e+00  4.647694e-01
 1.000000e+00  4.499450e-01
 1.000000e+00  4.352919e-01
 1.000000e+00  4.208147e-01
 1.000000e+00  4.065180e-01
 1.000000e+00  3.924061e-01
 1.000000e+00  3.784834e-01
 1.000000e+00  3.647544e-01
 1.000000e+00  3.512232e-01
 1.000000e+00  3.378942e-01
 1.000000e+00  3.247713e-01
 1.000000e+00  3.118588e-01
 1.000000e+00  2.991607e-01
 1.000000e+00  2.866808e-01
 1.000000e+00  2.744232e-01
 1.000000e+00  2.623915e-01
 1.000000e+00  2.505897e-01
 1.000000e+00  2.390212e-01
 1.000000e+00  2.276898e-01
 1.000000e+00  2.165990e-01
 1.000000e+00  2.057522e-01
 1.000000e+00  1.951528e-01
 1.000000e+00  1.848041e-01
 1.000000e+00  1.747093e-01
 1.000000e+00  1.648716e-01
 1.000000e+00  1.552940e-01
 1.000000e+00  1.459796e-01
 1.000000e+00  1.369311e-01
 1.000000e+00  1.281515e-01
 1.000000e+00  1.196435e-01
 1.000000e+00  1.114098e-01
 1.000000e+00  1.034528e-01
 1.000000e+00  9.577503e-02
 1.000000e+00  8.837896e-02
 1.000000e+00  8.126686e-02
 1.000000e+00  7.444093e-02
 1.000000e+00  6.790331e-02
 1.000000e+00  6.165604e-02
 1.000000e+00  5.570105e-02
 1.000000e+00  5.004020e-02
 1.000000e+00  4.467526e-02
 1.000000e+00  3.960789e-02
 1.000000e+00  3.483968e-02
 1.000000e+00  3.037212e-02
 1.000000e+00  2.620658e-02
 1.000000e+00  2.234438e-02
 1.000000e+00  1.878670e-02
 1.000000e+00  1.553467e-02
 1.000000e+00  1.258929e-02
 1.000000e+00  9.951489e-03
 1.000000e+00  7.622077e-03
 1.000000e+00  5.601784e-03
 1.000000e+00  3.891239e-03
 1.000000e+00  2.490975e-03
 1.000000e+00  1.401428e-03
 1.000000e+00  6.229377e-04
 1.000000e+00  1.557466e-04
 1.000000e+00  0.000000e+00

 1.000000e+00  1.000000e+00
 1.000000e+00  9.823515e-01
 1.000000e+00  9.647085e-01
 1.000000e+00  9.470765e-01
 1.000000e+00  9.294610e-01
 1.000000e+00  9.118675e-01
 1.000000e+00  8.943014e-01
 1.000000e+00  8.767683e-01
 1.000000e+00  8.592735e-01
 1.000000e+00  8.418226e-01
 1.000000e+00  8.244209e-01
 1.000000e+00  8.070739e-01
 1.000000e+00  7.897871e-01
 1.000000e+00  7.725657e-01
 1.000000e+00  7.554151e-01
 1.000000e+00  7.383407e-01
 1.000000e+00  7.213479e-01
 1.000000e+00  7.044418e-01
 1.000000e+00  6.876278e-01
 1.000000e+00  6.709111e-01
 1.000000e+00  6.542969e-01
 1.000000e+00  6.377904e-01
 1.000000e+00  6.213968e-01
 1.000000e+00  6.051210e-01
 1.000000e+00  5.889683e-01
 1.000000e+00  5.729436e-01
 1.000000e+00  5.570519e-01
 1.000000e+00  5.412982e-01
 1.000000e+00  5.256873e-01
 1.000000e+00  5.102243e-01
 1.000000e+00  4.949137e-01
 1.000000e+00  4.797606e-01
 1.000000e+00  4.647694e-01
 1.000000e+00  4.499450e-01
 1.000000e+00  4.352919e-01
 1.000000e+00  4.208147e-01
 1.000000e+00  4.065180e-01
 1.000000e+00  3.924061e-01
 1.000000e+00  3.784834e-01
 1.000000e+00  3.647544e-01
 1.000000e+00  3.512232e-01
 1.000000e+00  3.378942e-01
 1.000000e+00  3.247713e-01
 1.000000e+00  3.118588e-01
 1.000000e+00  2.991607e-01
 1.000000e+00  2.866808e-01
 1.000000e+00  2.744232e-01
 1.000000e+00  2.623915e-01
 1.000000e+00  2.505897e-01
 1.000000e+00  2.390212e-01
 1.000000e+00  2.276898e-01
 1.000000e+00  2.165990e-01
 1.000000e+00  2.057522e-01
 1.000000e+00  1.951528e-01
 1.000000e+00  1.848041e-01
 1.000000e+00  1.747093e-01
 1.000000e+00  1.648716e-01
 1.000000e+00  1.552940e-01
 1.000000e+00  1.459796e-01
 1.000000e+00  1.369311e-01
 1.000000e+00  1.281515e-01
 1.000000e+00  1.196435e-01
 1.000000e+00  1.114098e-01
 1.000000e+00  1.034528e-01
 1.000000e+00  9.577503e-02
 1.000000e+00  8.837896e-02
 1.000000e+00  8.126686e-02
 1.000000e+00  7.444093e-02
 1.000000e+00  6.790331e-02
 1.000000e+00  6.165604e-02
 1.000000e+00  5.570105e-02
 1.000000e+00  5.004020e-02
 1.000000e+00  4.467526e-02
 1.000000e+00  3.960789e-02
 1.000000e+00  3.483968e-02
 1.000000e+00  3.037212e-02
 1.000000e+00  2.620658e-02
 1.000000e+00  2.234438e-02
 1.000000e+00  1.878670e-02
 1.000000e+00  1.553467e-02
 1.000000e+00  1.258929e-02
 1.000000e+00  9.951489e-03
 1.000000e+00  7.622077e-03
 1.000000e+00  5.601784e-03
 1.000000e+00  3.891239e-03
 1.000000e+00  2.490975e-03
 1.000000e+00  1.401428e-03
 1.000000e+00  6.229377e-04
 1.000000e+00  1.557466e-04
 1.000000e+00  0.000000e+00

 1.000000e+00  1.000000e+00
 1.000000e+00  9.823515e-01
 1.000000e+00  9.647085e-01
 1.000000e+00  9.470765e-01
 1.000000e+00  9.294610e-01
 1.000000e+00  9.118675e-01
 1.000000e+00  8.943014e-01
 1.000000e+00  8.767683e-01
 1.000000e+00  8.592735e-01
 1.000000e+00  8.418226e-01
 1.000000e+00  8.244209e-01
 1.000000e+00  8.070739e-01
 1.000000e+00  7.897871e-01
 1.000000e+00  7.725657e-01
 1.000000e+00  7.554151e-01
 1.000000e+00  7.383407e-01
 1.000000e+00  7.213479e-01
 1.000000e+00  7.044418e-01
 1.000000e+00  6.876278e-01
 1.000000e+00  6.709111e-01
 1.000000e+00  6.542969e-01
 1.000000e+00  6.377904e-01
 1.000000e+00  6.213968e-01
 1.000000e+00  6.051210e-01
 1.000000e+00  5.889683e-01
 1.000000e+00  5.729436e-01
 1.000000e+00  5.570519e-01
 1.000000e+00  5.412982e-01
 1.000000e+00  5.256873e-01
 1.000000e+00  5.102243e-01
 1.000000e+00  4.949137e-01
 1.000000e+00  4.797606e-01
 1.000000e+00  4.647694e-01
 1.000000e+00  4.499450e-01
 1.000000e+00  4.352919e-01
 1.000000e+00  4.208147e-01
 1.000000e+00  4.065180e-01
 1.000000e+00  3.924061e-01
 1.000000e+00  3.784834e-01
 1.000000e+00  3.647544e-01
 1.000000e+00  3.512232e-01
 1.000000e+00  3.378942e-01
 1.000000e+00  3.247713e-01
 1.000000e+00  3.118588e-01
 1.000000e+00  2.991607e-01
 1.000000e+00  2.866808e-01
 1.000000e+00  2.744232e-01
 1.000000e+00  2.623915e-01
 1.000000e+00  2.505897e-01
 1.000000e+00  2.390212e-01
 1.000000e+00  2.276898e-01
 1.000000e+00  2.165990e-01
 1.000000e+00  2.057522e-01
 1.000000e+00  1.951528e-01
 1.000000e+00  1.848041e-01
 1.000000e+00  1.747093e-01
 1.000000e+00  1.648716e-01
 1.000000e+00  1.552940e-01
 1.000000e+00  1.459796e-01
 1.000000e+00  1.369311e-01
 1.000000e+00  1.281515e-01
 1.000000e+00  1.196435e-01
 1.000000e+00  1.114098e-01
 1.000000e+00  1.034528e-01
 1.000000e+00  9.577503e-02
 1.000000e+00  8.837896e-02
 1.000000e+00  8.126686e-02
 1.000000e+00  7.444093e-02
 1.000000e+00  6.790331e-02
 1.000000e+00  6.165604e-02
 1.000000e+00  5.570105e-02
 1.000000e+00  5.004020e-02
 1.000000e+00  4.467526e-02
 1.000000e+00  3.960789e-02
 1.000000e+00  3.483968e-02
 1.000000e+00  3.037212e-02
 1.000000e+00  2.620658e-02
 1.000000e+00  2.234438e-02
 1.000000e+00  1.878670e-02
 1.000000e+00  1.553467e-02
 1.000000e+00  1.258929e-02
 1.000000e+00  9.951489e-03
 1.000000e+00  7.622077e-03
 1.000000e+00  5.601784e-03
 1.000000e+00  3.891239e-03
 1.000000e+00  2.490975e-03
 1.000000e+00  1.401428e-03
 1.000000e+00  6.229377e-04
 1.000000e+00  1.557466e-04
 1.000000e+00  0.000000e+00

 1.000000e+00  1.000000e+00
 1.000000e+00  9.823515e-01
 1.000000e+00  9.647085e-01
 1.000000e+00  9.470765e-01
 1.000000e+00  9.294610e-01
 1.000000e+00  9.118675e-01
 1.000000e+00  8.943014e-01
 1.000000e+00  8.767683e-01
 1.000000e+00  8.592735e-01
 1.000000e+00  8.418226e-01
 1.000000e+00  8.244209e-01
 1.000000e+00  8.070739e-01
 1.000000e+00  7.897871e-01
 1.000000e+00  7.725657e-01
 1.000000e+00  7.554151e-01
 1.000000e+00  7.383407e-01
 1.000000e+00  7.213479e-01
 1.000000e+00  7.044418e-01
 1.000000e+00  6.876278e-01
 1.000000e+00  6.709111e-01
 1.000000e+00  6.542969e-01
 1.000000e+00  6.377904e-01
 1.000000e+00  6.213968e-01
 1.000000e+00  6.051210e-01
 1.000000e+00  5.889683e-01
 1.000000e+00  5.729436e-01
 1.000000e+00  5.570519e-01
 1.000000e+00  5.412982e-01
 1.000000e+00  5.256873e-01
 1.000000e+00  5.102243e-01
 1.000000e+00  4.949137e-01
 1.000000e+00  4.797606e-01
 1.000000e+00  4.647694e-01
 1.000000e+00  4.499450e-01
 1.000000e+00  4.352919e-01
 1.000000e+00  4.208147e-01
 1.000000e+00  4.065180e-01
 1.000000e+00  3.924061e-01
 1.000000e+00  3.784834e-01
 1.000000e+00  3.647544e-01
 1.000000e+00  3.512232e-01
 1.000000e+00  3.378942e-01
 1.000000e+00  3.247713e-01
 1.000000e+00  3.118588e-01
 1.000000e+00  2.991607e-01
 1.000000e+00  2.866808e-01
 1.000000e+00  2.744232e-01
 1.000000e+00  2.623915e-01
 1.000000e+00  2.505897e-01
 1.000000e+00  2.390212e-01
 1.000000e+00  2.276898e-01
 1.000000e+00  2.165990e-01
 1.000000e+00  2.057522e-01
 1.000000e+00  1.951528e-01
 1.000000e+00  1.848041e-01
 1.000000e+00  1.747093e-01
 1.000000e+00  1.648716e-01
 1.000000e+00  1.552940e-01
 1.000000e+00  1.459796e-01
 1.000000e+00  1.369311e-01
 1.000000e+00  1.281515e-01
 1.000000e+00  1.196435e-01
 1.000000e+00  1.114098e-01
 1.000000e+00  1.034528e-01
 1.000000e+00  9.577503e-02
 1.000000e+00  8.837896e-02
 1.000000e+00  8.126686e-02
 1.000000e+00  7.444093e-02
 1.000000e+00  6.790331e-02
 1.000000e+00  6.165604e-02
 1.000000e+00  5.570105e-02
 1.000000e+00  5.004020e-02
 1.000000e+00  4.467526e-02
 1.000000e+00  3.960789e-02
 1.000000e+00  3.483968e-02
 1.000000e+00  3.037212e-02
 1.000000e+00  2.620658e-02
 1.000000e+00  2.234438e-02
 1.000000e+00  1.878670e-02
 1.000000e+00  1.553467e-02
 1.000000e+00  1.258929e-02
 1.000000e+00  9.951489e-03
 1.000000e+00  7.622077e-03
 1.000000e+00  5.601784e-03
 1.000000e+00  3.891239e-03
 1.000000e+00  2.490975e-03
 1.000000e+00  1.401428e-03
 1.000000e+00  6.229377e-04
 1.000000e+00  1.557466e-04
 1.000000e+00  0.000000e+00

 1.000000e+00  1.000000e+00
 1.000000e+00  9.823515e-01
 1.000000e+00  9.647085e-01
 1.000000e+00  9.470765e-01
 1.000000e+00  9.294610e-01
 1.000000e+00  9.118675e-01
 1.000000e+00  8.943014e-01
 1.000000e+00  8.767683e-01
 1.000000e+00  8.592735e-01
 1.000000e+00  8.418226e-01
 1.000000e+00  8.244209e-01
 1.000000e+00  8.070739e-01
 1.000000e+00  7.897871e-01
 1.000000e+00  7.725657e-01
 1.000000e+00  7.554151e-01
 1.000000e+00  7.383407e-01
 1.000000e+00  7.213479e-01
 1.000000e+00  7.044418e-01
 1.000000e+00  6.876278e-01
 1.000000e+00  6.709111e-01
 1.000000e+00  6.542969e-01
 1.000000e+00  6.377904e-01
 1.000000e+00  6.213968e-01
 1.000000e+00  6.051210e-01
 1.000000e+00  5.889683e-01
 1.000000e+00  5.729436e-01
 1.000000e+00  5.570519e-01
 1.000000e+00  5.412982e-01
 1.000000e+00  5.256873e-01
 1.000000e+00  5.102243e-01
 1.000000e+00  4.949137e-01
 1.000000e+00  4.797606e-01
 1.000000e+00  4.647694e-01
 1.000000e+00  4.499450e-01
 1.000000e+00  4.352919e-01
 1.000000e+00  4.208147e-01
 1.000000e+00  4.065180e-01
 1.000000e+00  3.924061e-01
 1.000000e+00  3.784834e-01
 1.000000e+00  3.647544e-01
 1.000000e+00  3.512232e-01
 1.000000e+00  3.378942e-01
 1.000000e+00  3.247713e-01
 1.000000e+00  3.118588e-01
 1.000000e+00  2.991607e-01
 1.000000e+00  2.866808e-01
 1.000000e+00  2.744232e-01
 1.000000e+00  2.623915e-01
 1.000000e+00  2.505897e-01
 1.000000e+00  2.390212e-01
 1.000000e+00  2.276898e-01
 1.000000e+00  2.165990e-01
 1.000000e+00  2.057522e-01
 1.000000e+00  1.951528e-01
 1.000000e+00  1.848041e-01
 1.000000e+00  1.747093e-01
 1.000000e+00  1.648716e-01
 1.000000e+00  1.552940e-01
 1.000000e+00  1.459796e-01
 1.000000e+00  1.369311e-01
 1.000000e+00  1.281515e-01
 1.000000e+00  1.196435e-01
 1.000000e+00  1.114098e-01
 1.000000e+00  1.034528e-01
 1.000000e+00  9.577503e-02
 1.000000e+00  8.837896e-02
 1.000000e+00  8.126686e-02
 1.000000e+00  7.444093e-02
 1.000000e+00  6.790331e-02
 1.000000e+00  6.165604e-02
 1.000000e+00  5.570105e-02
 1.000000e+00  5.004020e-02
 1.000000e+00  4.467526e-02
 1.000000e+00  3.960789e-02
 1.000000e+00  3.483968e-02
 1.000000e+00  3.037212e-02
 1.000000e+00  2.620658e-02
 1.000000e+00  2.234438e-02
 1.000000e+00  1.878670e-02
 1.000000e+00  1.553467e-02
 1.000000e+00  1.258929e-02
 1.000000e+00  9.951489e-03
 1.000000e+00  7.622077e-03
 1.000000e+00  5.601784e-03
 1.000000e+00  3.891239e-03
 1.000000e+00  2.490975e-03
 1.000000e+00  1.401428e-03
 1.000000e+00  6.229377e-04
 1.000000e+00  1.557466e-04
 1.000000e+00  0.000000e+00

 1.000000e+00  1.000000e+00
 1.000000e+00  9.823515e-01
 1.000000e+00  9.647085e-01
 1.000000e+00  9.470765e-01
 1.000000e+00  9.294610e-01
 1.000000e+00  9.118675e-01
 1.000000e+00  8.943014e-01
 1.000000e+00  8.767683e-01
 1.000000e+00  8.592735e-01
 1.000000e+00  8.418226e-01
 1.000000e+00  8.244209e-01
 1.000000e+00  8.070739e-01
 1.000000e+00  7.897871e-01
 1.000000e+00  7.725657e-01
 1.000000e+00  7.554151e-01
 1.000000e+00  7.383407e-01
 1.000000e+00  7.213479e-01
 1.000000e+00  7.044418e-01
 1.000000e+00  6.876278e-01
 1.000000e+00  6.709111e-01
 1.000000e+00  6.542969e-01
 1.000000e+00  6.377904e-01
 1.000000e+00  6.213968e-01
 1.000000e+00  6.051210e-01
 1.000000e+00  5.889683e-01
 1.000000e+00  5.729436e-01
 1.000000e+00  5.570519e-01
 1.000000e+00  5.412982e-01
 1.000000e+00  5.256873e-01
 1.000000e+00  5.102243e-01
 1.000000e+00  4.949137e-01
 1.000000e+00  4.797606e-01
 1.000000e+00  4.647694e-01
 1.000000e+00  4.499450e-01
 1.000000e+00  4.352919e-01
 1.000000e+00  4.208147e-01
 1.000000e+00  4.065180e-01
 1.000000e+00  3.924061e-01
 1.000000e+00  3.784834e-01
 1.000000e+00  3.647544e-01
 1.000000e+00  3.512232e-01
 1.000000e+00  3.378942e-01
 1.000000e+00  3.247713e-01
 1.000000e+00  3.118588e-01
 1.000000e+00  2.991607e-01
 1.000000e+00  2.866808e-01
 1.000000e+00  2.744232e-01
 1.000000e+00  2.623915e-01
 1.000000e+00  2.505897e-01
 1.000000e+00  2.390212e-01
 1.000000e+00  2.276898e-01
 1.000000e+00  2.165990e-01
 1.000000e+00  2.057522e-01
 1.000000e+00  1.951528e-01
 1.000000e+00  1.848041e-01
 1.000000e+00  1.747093e-01
 1.000000e+00  1.648716e-01
 1.000000e+00  1.552940e-01
 1.000000e+00  1.459796e-01
 1.000000e+00  1.369311e-01
 1.000000e+00  1.281515e-01
 1.000000e+00  1.196435e-01
 1.000000e+00  1.114098e-01
 1.000000e+00  1.034528e-01
 1.000000e+00  9.577503e-02
 1.000000e+00  8.837896e-02
 1.000000e+00  8.126686e-02
 1.000000e+00  7.444093e-02
 1.000000e+00  6.790331e-02
 1.000000e+00  6.165604e-02
 1.000000e+00  5.570105e-02
 1.000000e+00  5.004020e-02
 1.000000e+00  4.467526e-02
 1.000000e+00  3.960789e-02
 1.000000e+00  3.483968e-02
 1.000000e+00  3.037212e-02
 1.000000e+00  2.620658e-02
 1.000000e+00  2.234438e-02
 1.000000e+00  1.878670e-02
 1.000000e+00  1.553467e-02
 1.000000e+00  1.258929e-02
 1.000000e+00  9.951489e-03
 1.000000e+00  7.622077e-03
 1.000000e+00  5.601784e-03
 1.000000e+00  3.891239e-03
 1.000000e+00  2.490975e-03
 1.000000e+00  1.401428e-03
 1.000000e+00  6.229377e-04
 1.000000e+00  1.557466e-04
 1.000000e+00  0.000000e+00

 1.000000e+00  1.000000e+00
 1.000000e+00  9.823515e-01
 1.000000e+00  9.647085e-01
 1.000000e+00  9.470765e-01
 1.000000e+00  9.294610e-01
 1.000000e+00  9.118675e-01
 1.000000e+00  8.943014e-01
 1.000000e+00  8.767683e-01
 1.000000e+00  8.592735e-01
 1.000000e+00  8.418226e-01
 1.000000e+00  8.244209e-01
 1.000000e+00  8.070739e-01
 1.000000e+00  7.897871e-01
 1.000000e+00  7.725657e-01
 1.000000e+00  7.554151e-01
 1.000000e+00  7.383407e-01
 1.000000e+00  7.213479e-01
 1.000000e+00  7.044418e-01
 1.000000e+00  6.876278e-01
 1.000000e+00  6.709111e-01
 1.000000e+00  6.542969e-01
 1.000000e+00  6.377904e-01
 1.000000e+00  6.213968e-01
 1.000000e+00  6.051210e-01
 1.000000e+00  5.889683e-01
 1.000000e+00  5.729436e-01
 1.000000e+00  5.570519e-01
 1.000000e+00  5.412982e-01
 1.000000e+00  5.256873e-01
 1.000000e+00  5.102243e-01
 1.000000e+00  4.949137e-01
 1.000000e+00  4.797606e-01
 1.000000e+00  4.647694e-01
 1.000000e+00  4.499450e-01
 1.000000e+00  4.352919e-01
 1.000000e+00  4.208147e-01
 1.000000e+00  4.065180e-01
 1.000000e+00  3.924061e-01
 1.000000e+00  3.784834e-01
 1.000000e+00  3.647544e-01
 1.000000e+00  3.512232e-01
 1.000000e+00  3.378942e-01
 1.000000e+00  3.247713e-01
 1.000000e+00  3.118588e-01
 1.000000e+00  2.991607e-01
 1.000000e+00  2.866808e-01
 1.000000e+00  2.744232e-01
 1.000000e+00  2.623915e-01
 1.000000e+00  2.505897e-01
 1.000000e+00  2.390212e-01
 1.000000e+00  2.276898e-01
 1.000000e+00  2.165990e-01
 1.000000e+00  2.057522e-01
 1.000000e+00  1.951528e-01
 1.000000e+00  1.848041e-01
 1.000000e+00  1.747093e-01
 1.000000e+00  1.648716e-01
 1.000000e+00  1.552940e-01
 1.000000e+00  1.459796e-01
 1.000000e+00  1.369311e-01
 1.000000e+00  1.281515e-01
 1.000000e+00  1.196435e-01
 1.000000e+00  1.114098e-01
 1.000000e+00  1.034528e-01
 1.000000e+00  9.577503e-02
 1.000000e+00  8.837896e-02
 1.000000e+00  8.126686e-02
 1.000000e+00  7.444093e-02
 1.000000e+00  6.790331e-02
 1.000000e+00  6.165604e-02
 1.000000e+00  5.570105e-02
 1.000000e+00  5.004020e-02
 1.000000e+00  4.467526e-02
 1.000000e+00  3.960789e-02
 1.000000e+00  3.483968e-02
 1.000000e+00  3.037212e-02
 1.000000e+00  2.620658e-02
 1.000000e+00  2.234438e-02
 1.000000e+00  1.878670e-02
 1.000000e+00  1.553467e-02
 1.000000e+00  1.258929e-02
 1.000000e+00  9.951489e-03
 1.000000e+00  7.622077e-03
 1.000000e+00  5.601784e-03
 1.000000e+00  3.891239e-03
 1.000000e+00  2.490975e-03
 1.000000e+00  1.401428e-03
 1.000000e+00  6.229377e-04
 1.000000e+00  1.557466e-04
 1.000000e+00  0.000000e+00

 1.000000e+00  1.000000e+00
 1.000000e+00  9.823515e-01
 1.000000e+00  9.647085e-01
 1.000000e+00  9.470765e-01
 1.000000e+00  9.294610e-01
 1.000000e+00  9.118675e-01
 1.000000e+00  8.943014e-01
 1.000000e+00  8.767683e-01
 1.000000e+00  8.592735e-01
 1.000000e+00  8.418226e-01
 1.000000e+00  8.244209e-01
 1.000000e+00  8.070739e-01
 1.000000e+00  7.897871e-01
 1.000000e+00  7.725657e-01
 1.000000e+00  7.554151e-01
 1.000000e+00  7.383407e-01
 1.000000e+00  7.213479e-01
 1.000000e+00  7.044418e-01
 1.000000e+00  6.876278e-01
 1.000000e+00  6.709111e-01
 1.000000e+00  6.542969e-01
 1.000000e+00  6.377904e-01
 1.000000e+00  6.213968e-01
 1.000000e+00  6.051210e-01
 1.000000e+00  5.889683e-01
 1.000000e+00  5.729436e-01
 1.000000e+00  5.570519e-01
 1.000000e+00  5.412982e-01
 1.000000e+00  5.256873e-01
 1.000000e+00  5.102243e-01
 1.000000e+00  4.949137e-01
 1.000000e+00  4.797606e-01
 1.000000e+00  4.647694e-01
 1.000000e+00  4.499450e-01
 1.000000e+00  4.352919e-01
 1.000000e+00  4.208147e-01
 1.000000e+00  4.065180e-01
 1.000000e+00  3.924061e-01
 1.000000e+00  3.784834e-01
 1.000000e+00  3.647544e-01
 1.000000e+00  3.512232e-01
 1.000000e+00  3.378942e-01
 1.000000e+00  3.247713e-01
 1.000000e+00  3.118588e-01
 1.000000e+00  2.991607e-01
 1.000000e+00  2.866808e-01
 1.000000e+00  2.744232e-01
 1.000000e+00  2.623915e-01
 1.000000e+00  2.505897e-01
 1.000000e+00  2.390212e-01
 1.000000e+00  2.276898e-01
 1.000000e+00  2.165990e-01
 1.000000e+00  2.057522e-01
 1.000000e+00  1.951528e-01
 1.000000e+00  1.848041e-01
 1.000000e+00  1.747093e-01
 1.000000e+00  1.648716e-01
 1.000000e+00  1.552940e-01
 1.000000e+00  1.459796e-01
 1.000000e+00  1.369311e-01
 1.000000e+00  1.281515e-01
 1.000000e+00  1.196435e-01
 1.000000e+00  1.114098e-01
 1.000000e+00  1.034528e-01
 1.000000e+00  9.577503e-02
 1.000000e+00  8.837896e-02
 1.000000e+00  8.126686e-02
 1.000000e+00  7.444093e-02
 1.000000e+00  6.790331e-02
 1.000000e+00  6.165604e-02
 1.000000e+00  5.570105e-02
 1.000000e+00  5.004020e-02
 1.000000e+00  4.467526e-02
 1.000000e+00  3.960789e-02
 1.000000e+00  3.483968e-02
 1.000000e+00  3.037212e-02
 1.000000e+00  2.620658e-02
 1.000000e+00  2.234438e-02
 1.000000e+00  1.878670e-02
 1.000000e+00  1.553467e-02
 1.000000e+00  1.258929e-02
 1.000000e+00  9.951489e-03
 1.000000e+00  7.622077e-03
 1.000000e+00  5.601784e-03
 1.000000e+00  3.891239e-03
 1.000000e+00  2.490975e-03
 1.000000e+00  1.401428e-03
 1.000000e+00  6.229377e-04
 1.000000e+00  1.557466e-04
 1.000000e+00  0.000000e+00

 1.000000e+00  1.000000e+00
 1.000000e+00  9.823515e-01
 1.000000e+00  9.647085e-01
 1.000000e+00  9.470765e-01
 1.000000e+00  9.294610e-01
 1.000000e+00  9.118675e-01
 1.000000e+00  8.943014e-01
 1.000000e+00  8.767683e-01
 1.000000e+00  8.592735e-01
 1.000000e+00  8.418226e-01
 1.000000e+00  8.244209e-01
 1.000000e+00  8.070739e-01
 1.000000e+00  7.897871e-01
 1.000000e+00  7.725657e-01
 1.000000e+00  7.554151e-01
 1.000000e+00  7.383407e-01
 1.000000e+00  7.213479e-01
 1.000000e+00  7.044418e-01
 1.000000e+00  6.876278e-01
 1.000000e+00  6.709111e-01
 1.000000e+00  6.542969e-01
 1.000000e+00  6.377904e-01
 1.000000e+00  6.213968e-01
 1.000000e+00  6.051210e-01
 1.000000e+00  5.889683e-01
 1.000000e+00  5.729436e-01
 1.000000e+00  5.570519e-01
 1.000000e+00  5.412982e-01
 1.000000e+00  5.256873e-01
 1.000000e+00  5.102243e-01
 1.000000e+00  4.949137e-01
 1.000000e+00  4.797606e-01
 1.000000e+00  4.647694e-01
 1.000000e+00  4.499450e-01
 1.000000e+00  4.352919e-01
 1.000000e+00  4.208147e-01
 1.000000e+00  4.065180e-01
 1.000000e+00  3.924061e-01
 1.000000e+00  3.784834e-01
 1.000000e+00  3.647544e-01
 1.000000e+00  3.512232e-01
 1.000000e+00  3.378942e-01
 1.000000e+00  3.247713e-01
 1.000000e+00  3.118588e-01
 1.000000e+00  2.991607e-01
 1.000000e+00  2.866808e-01
 1.000000e+00  2.744232e-01
 1.000000e+00  2.623915e-01
 1.000000e+00  2.505897e-01
 1.000000e+00  2.390212e-01
 1.000000e+00  2.276898e-01
 1.000000e+00  2.165990e-01
 1.000000e+00  2.057522e-01
 1.000000e+00  1.951528e-01
 1.000000e+00  1.848041e-01
 1.000000e+00  1.747093e-01
 1.000000e+00  1.648716e-01
 1.000000e+00  1.552940e-01
 1.000000e+00  1.459796e-01
 1.000000e+00  1.369311e-01
 1.000000e+00  1.281515e-01
 1.000000e+00  1.196435e-01
 1.000000e+00  1.114098e-01
 1.000000e+00  1.034528e-01
 1.000000e+00  9.577503e-02
 1.000000e+00  8.837896e-02
 1.000000e+00  8.126686e-02
 1.000000e+00  7.444093e-02
 1.000000e+00  6.790331e-02
 1.000000e+00  6.165604e-02
 1.000000e+00  5.570105e-02
 1.000000e+00  5.004020e-02
 1.000000e+00  4.467526e-02
 1.000000e+00  3.960789e-02
 1.000000e+00  3.483968e-02
 1.000000e+00  3.037212e-02
 1.000000e+00  2.620658e-02
 1.000000e+00  2.234438e-02
 1.000000e+00  1.878670e-02
 1.000000e+00  1.553467e-02
 1.000000e+00  1.258929e-02
 1.000000e+00  9.951489e-03
 1.000000e+00  7.622077e-03
 1.000000e+00  5.601784e-03
 1.000000e+00  3.891239e-03
 1.000000e+00  2.490975e-03
 1.000000e+00  1.401428e-03
 1.000000e+00  6.229377e-04
 1.000000e+00  1.557466e-04
 1.000000e+00  0.000000e+00

 1.000000e+00  1.000000e+00
 1.000000e+00  9.823515e-01
 1.000000e+00  9.647085e-01
 1.000000e+00  9.470765e-01
 1.000000e+00  9.294610e-01
 1.000000e+00  9.118675e-01
 1.000000e+00  8.943014e-01
 1.000000e+00  8.767683e-01
 1.000000e+00  8.592735e-01
 1.000000e+00  8.418226e-01
 1.000000e+00  8.244209e-01
 1.000000e+00  8.070739e-01
 1.000000e+00  7.897871e-01
 1.000000e+00  7.725657e-01
 1.000000e+00  7.554151e-01
 1.000000e+00  7.383407e-01
 1.000000e+00  7.213479e-01
 1.000000e+00  7.044418e-01
 1.000000e+00  6.876278e-01
 1.000000e+00  6.709111e-01
 1.000000e+00  6.542969e-01
 1.000000e+00  6.377904e-01
 1.000000e+00  6.213968e-01
 1.000000e+00  6.051210e-01
 1.000000e+00  5.889683e-01
 1.000000e+00  5.729436e-01
 1.000000e+00  5.570519e-01
 1.000000e+00  5.412982e-01
 1.000000e+00  5.256873e-01
 1.000000e+00  5.102243e-01
 1.000000e+00  4.949137e-01
 1.000000e+00  4.797606e-01
 1.000000e+00  4.647694e-01
 1.000000e+00  4.499450e-01
 1.000000e+00  4.352919e-01
 1.000000e+00  4.208147e-01
 1.000000e+00  4.065180e-01
 1.000000e+00  3.924061e-01
 1.000000e+00  3.784834e-01
 1.000000e+00  3.647544e-01
 1.000000e+00  3.512232e-01
 1.000000e+00  3.378942e-01
 1.000000e+00  3.247713e-01
 1.000000e+00  3.118588e-01
 1.000000e+00  2.991607e-01
 1.000000e+00  2.866808e-01
 1.000000e+00  2.744232e-01
 1.000000e+00  2.623915e-01
 1.000000e+00  2.505897e-01
 1.000000e+00  2.390212e-01
 1.000000e+00  2.276898e-01
 1.000000e+00  2.165990e-01
 1.000000e+00  2.057522e-01
 1.000000e+00  1.951528e-01
 1.000000e+00  1.848041e-01
 1.000000e+00  1.747093e-01
 1.000000e+00  1.648716e-01
 1.000000e+00  1.552940e-01
 1.000000e+00  1.459796e-01
 1.000000e+00  1.369311e-01
 1.000000e+00  1.281515e-01
 1.000000e+00  1.196435e-01
 1.000000e+00  1.114098e-01
 1.000000e+00  1.034528e-01
 1.000000e+00  9.577503e-02
 1.000000e+00  8.837896e-02
 1.000000e+00  8.126686e-02
 1.000000e+00  7.444093e-02
 1.000000e+00  6.790331e-02
 1.000000e+00  6.165604e-02
 1.000000e+00  5.570105e-02
 1.000000e+00  5.004020e-02
 1.000000e+00  4.467526e-02
 1.000000e+00  3.960789e-02
 1.000000e+00  3.483968e-02
 1.000000e+00  3.037212e-02
 1.000000e+00  2.620658e-02
 1.000000e+00  2.234438e-02
 1.000000e+00  1.878670e-02
 1.000000e+00  1.553467e-02
 1.000000e+00  1.258929e-02
 1.000000e+00  9.951489e-03
 1.000000e+00  7.622077e-03
 1.000000e+00  5.601784e-03
 1.000000e+00  3.891239e-03
 1.000000e+00  2.490975e-03
 1.000000e+00  1.401428e-03
 1.000000e+00  6.229377e-04
 1.000000e+00  1.557466e-04
 1.000000e+00  0.000000e+00

 1.000000e+00  1.000000e+00
 1.000000e+00  9.823515e-01
 1.000000e+00  9.647085e-01
 1.000000e+00  9.470765e-01
 1.000000e+00  9.294610e-01
 1.000000e+00  9.118675e-01
 1.000000e+00  8.943014e-01
 1.000000e+00  8.767683e-01
 1.000000e+00  8.592735e-01
 1.000000e+00  8.418226e-01
 1.000000e+00  8.244209e-01
 1.000000e+00  8.070739e-01
 1.000000e+00  7.897871e-01
 1.000000e+00  7.725657e-01
 1.000000e+00  7.554151e-01
 1.000000e+00  7.383407e-01
 1.000000e+00  7.213479e-01
 1.000000e+00  7.044418e-01
 1.000000e+00  6.876278e-01
 1.000000e+00  6.709111e-01
 1.000000e+00  6.542969e-01
 1.000000e+00  6.377904e-01
 1.000000e+00  6.213968e-01
 1.000000e+00  6.051210e-01
 1.000000e+00  5.889683e-01
 1.000000e+00  5.729436e-01
 1.000000e+00  5.570519e-01
 1.000000e+00  5.412982e-01
 1.000000e+00  5.256873e-01
 1.000000e+00  5.102243e-01
 1.000000e+00  4.949137e-01
 1.000000e+00  4.797606e-01
 1.000000e+00  4.647694e-01
 1.000000e+00  4.499450e-01
 1.000000e+00  4.352919e-01
 1.000000e+00  4.208147e-01
 1.000000e+00  4.065180e-01
 1.000000e+00  3.924061e-01
 1.000000e+00  3.784834e-01
 1.000000e+00  3.647544e-01
 1.000000e+00  3.512232e-01
 1.000000e+00  3.378942e-01
 1.000000e+00  3.247713e-01
 1.000000e+00  3.118588e-01
 1.000000e+00  2.991607e-01
 1.000000e+00  2.866808e-01
 1.000000e+00  2.744232e-01
 1.000000e+00  2.623915e-01
 1.000000e+00  2.505897e-01
 1.000000e+00  2.390212e-01
 1.000000e+00  2.276898e-01
 1.000000e+00  2.165990e-01
 1.000000e+00  2.057522e-01
 1.000000e+00  1.951528e-01
 1.000000e+00  1.848041e-01
 1.000000e+00  1.747093e-01
 1.000000e+00  1.648716e-01
 1.000000e+00  1.552940e-01
 1.000000e+00  1.459796e-01
 1.000000e+00  1.369311e-01
 1.000000e+00  1.281515e-01
 1.000000e+00  1.196435e-01
 1.000000e+00  1.114098e-01
 1.000000e+00  1.034528e-01
 1.000000e+00  9.577503e-02
 1.000000e+00  8.837896e-02
 1.000000e+00  8.126686e-02
 1.000000e+00  7.444093e-02
 1.000000e+00  6.790331e-02
 1.000000e+00  6.165604e-02
 1.000000e+00  5.570105e-02
 1.000000e+00  5.004020e-02
 1.000000e+00  4.467526e-02
 1.000000e+00  3.960789e-02
 1.000000e+00  3.483968e-02
 1.000000e+00  3.037212e-02
 1.000000e+00  2.620658e-02
 1.000000e+00  2.234438e-02
 1.000000e+00  1.878670e-02
 1.000000e+00  1.553467e-02
 1.000000e+00  1.258929e-02
 1.000000e+00  9.951489e-03
 1.000000e+00  7.622077e-03
 1.000000e+00  5.601784e-03
 1.000000e+00  3.891239e-03
 1.000000e+00  2.490975e-03
 1.000000e+00  1.401428e-03
 1.000000e+00  6.229377e-04
 1.000000e+00  1.557466e-04
 1.000000e+00  0.000000e+00

 1.000000e+00  1.000000e+00
 1.000000e+00  9.823515e-01
 1.000000e+00  9.647085e-01
 1.000000e+00  9.470765e-01
 1.000000e+00  9.294610e-01
 1.000000e+00  9.118675e-01
 1.000000e+00  8.943014e-01
 1.000000e+00  8.767683e-01
 1.000000e+00  8.592735e-01
 1.000000e+00  8.418226e-01
 1.000000e+00  8.244209e-01
 1.000000e+00  8.070739e-01
 1.000000e+00  7.897871e-01
 1.000000e+00  7.725657e-01
 1.000000e+00  7.554151e-01
 1.000000e+00  7.383407e-01
 1.000000e+00  7.213479e-01
 1.000000e+00  7.044418e-01
 1.000000e+00  6.876278e-01
 1.000000e+00  6.709111e-01
 1.000000e+00  6.542969e-01
 1.000000e+00  6.377904e-01
 1.000000e+00  6.213968e-01
 1.000000e+00  6.051210e-01
 1.000000e+00  5.889683e-01
 1.000000e+00  5.729436e-01
 1.000000e+00  5.570519e-01
 1.000000e+00  5.412982e-01
 1.000000e+00  5.256873e-01
 1.000000e+00  5.102243e-01
 1.000000e+00  4.949137e-01
 1.000000e+00  4.797606e-01
 1.000000e+00  4.647694e-01
 1.000000e+00  4.499450e-01
 1.000000e+00  4.352919e-01
 1.000000e+00  4.208147e-01
 1.000000e+00  4.065180e-01
 1.000000e+00  3.924061e-01
 1.000000e+00  3.784834e-01
 1.000000e+00  3.647544e-01
 1.000000e+00  3.512232e-01
 1.000000e+00  3.378942e-01
 1.000000e+00  3.247713e-01
 1.000000e+00  3.118588e-01
 1.000000e+00  2.991607e-01
 1.000000e+00  2.866808e-01
 1.000000e+00  2.744232e-01
 1.000000e+00  2.623915e-01
 1.000000e+00  2.505897e-01
 1.000000e+00  2.390212e-01
 1.000000e+00  2.276898e-01
 1.000000e+00  2.165990e-01
 1.000000e+00  2.057522e-01
 1.000000e+00  1.951528e-01
 1.000000e+00  1.848041e-01
 1.000000e+00  1.747093e-01
 1.000000e+00  1.648716e-01
 1.000000e+00  1.552940e-01
 1.000000e+00  1.459796e-01
 1.000000e+00  1.369311e-01
 1.000000e+00  1.281515e-01
 1.000000e+00  1.196435e-01
 1.000000e+00  1.114098e-01
 1.000000e+00  1.034528e-01
 1.000000e+00  9.577503e-02
 1.000000e+00  8.837896e-02
 1.000000e+00  8.126686e-02
 1.000000e+00  7.444093e-02
 1.000000e+00  6.790331e-02
 1.000000e+00  6.165604e-02
 1.000000e+00  5.570105e-02
 1.000000e+00  5.004020e-02
 1.000000e+00  4.467526e-02
 1.000000e+00  3.960789e-02
 1.000000e+00  3.483968e-02
 1.000000e+00  3.037212e-02
 1.000000e+00  2.620658e-02
 1.000000e+00  2.234438e-02
 1.000000e+00  1.878670e-02
 1.000000e+00  1.553467e-02
 1.000000e+00  1.258929e-02
 1.000000e+00  9.951489e-03
 1.000000e+00  7.622077e-03
 1.000000e+00  5.601784e-03
 1.000000e+00  3.891239e-03
 1.000000e+00  2.490975e-03
 1.000000e+00  1.401428e-03
 1.000000e+00  6.229377e-04
 1.000000e+00  1.557466e-04
 1.000000e+00  0.000000e+00

 1.000000e+00  1.000000e+00
 1.000000e+00  9.823515e-01
 1.000000e+00  9.647085e-01
 1.000000e+00  9.470765e-01
 1.000000e+00  9.294610e-01
 1.000000e+00  9.118675e-01
 1.000000e+00  8.943014e-01
 1.000000e+00  8.767683e-01
 1.000000e+00  8.592735e-01
 1.000000e+00  8.418226e-01
 1.000000e+00  8.244209e-01
 1.000000e+00  8.070739e-01
 1.000000e+00  7.897871e-01
 1.000000e+00  7.725657e-01
 1.000000e+00  7.554151e-01
 1.000000e+00  7.383407e-01
 1.000000e+00  7.213479e-01
 1.000000e+00  7.044418e-01
 1.000000e+00  6.876278e-01
 1.000000e+00  6.709111e-01
 1.000000e+00  6.542969e-01
 1.000000e+00  6.377904e-01
 1.000000e+00  6.213968e-01
 1.000000e+00  6.051210e-01
 1.000000e+00  5.889683e-01
 1.000000e+00  5.729436e-01
 1.000000e+00  5.570519e-01
 1.000000e+00  5.412982e-01
 1.000000e+00  5.256873e-01
 1.000000e+00  5.102243e-01
 1.000000e+00  4.949137e-01
 1.000000e+00  4.797606e-01
 1.000000e+00  4.647694e-01
 1.000000e+00  4.499450e-01
 1.000000e+00  4.352919e-01
 1.000000e+00  4.208147e-01
 1.000000e+00  4.065180e-01
 1.000000e+00  3.924061e-01
 1.000000e+00  3.784834e-01
 1.000000e+00  3.647544e-01
 1.000000e+00  3.512232e-01
 1.000000e+00  3.378942e-01
 1.000000e+00  3.247713e-01
 1.000000e+00  3.118588e-01
 1.000000e+00  2.991607e-01
 1.000000e+00  2.866808e-01
 1.000000e+00  2.744232e-01
 1.000000e+00  2.623915e-01
 1.000000e+00  2.505897e-01
 1.000000e+00  2.390212e-01
 1.000000e+00  2.276898e-01
 1.000000e+00  2.165990e-01
 1.000000e+00  2.057522e-01
 1.000000e+00  1.951528e-01
 1.000000e+00  1.848041e-01
 1.000000e+00  1.747093e-01
 1.000000e+00  1.648716e-01
 1.000000e+00  1.552940e-01
 1.000000e+00  1.459796e-01
 1.000000e+00  1.369311e-01
 1.000000e+00  1.281515e-01
 1.000000e+00  1.196435e-01
 1.000000e+00  1.114098e-01
 1.000000e+00  1.034528e-01
 1.000000e+00  9.577503e-02
 1.000000e+00  8.837896e-02
 1.000000e+00  8.126686e-02
 1.000000e+00  7.444093e-02
 1.000000e+00  6.790331e-02
 1.000000e+00  6.165604e-02
 1.000000e+00  5.570105e-02
 1.000000e+00  5.004020e-02
 1.000000e+00  4.467526e-02
 1.000000e+00  3.960789e-02
 1.000000e+00  3.483968e-02
 1.000000e+00  3.037212e-02
 1.000000e+00  2.620658e-02
 1.000000e+00  2.234438e-02
 1.000000e+00  1.878670e-02
 1.000000e+00  1.553467e-02
 1.000000e+00  1.258929e-02
 1.000000e+00  9.951489e-03
 1.000000e+00  7.622077e-03
 1.000000e+00  5.601784e-03
 1.000000e+00  3.891239e-03
 1.000000e+00  2.490975e-03
 1.000000e+00  1.401428e-03
 1.000000e+00  6.229377e-04
 1.000000e+00  1.557466e-04
 1.000000e+00  0.000000e+00

 1.000000e+00  1.000000e+00
 1.000000e+00  9.823515e-01
 1.000000e+00  9.647085e-01
 1.000000e+00  9.470765e-01
 1.000000e+00  9.294610e-01
 1.000000e+00  9.118675e-01
 1.000000e+00  8.943014e-01
 1.000000e+00  8.767683e-01
 1.000000e+00  8.592735e-01
 1.000000e+00  8.418226e-01
 1.000000e+00  8.244209e-01
 1.000000e+00  8.070739e-01
 1.000000e+00  7.897871e-01
 1.000000e+00  7.725657e-01
 1.000000e+00  7.554151e-01
 1.000000e+00  7.383407e-01
 1.000000e+00  7.213479e-01
 1.000000e+00  7.044418e-01
 1.000000e+00  6.876278e-01
 1.000000e+00  6.709111e-01
 1.000000e+00  6.542969e-01
 1.000000e+00  6.377904e-01
 1.000000e+00  6.213968e-01
 1.000000e+00  6.051210e-01
 1.000000e+00  5.889683e-01
 1.000000e+00  5.729436e-01
 1.000000e+00  5.570519e-01
 1.000000e+00  5.412982e-01
 1.000000e+00  5.256873e-01
 1.000000e+00  5.102243e-01
 1.000000e+00  4.949137e-01
 1.000000e+00  4.797606e-01
 1.000000e+00  4.647694e-01
 1.000000e+00  4.499450e-01
 1.000000e+00  4.352919e-01
 1.000000e+00  4.208147e-01
 1.000000e+00  4.065180e-01
 1.000000e+00  3.924061e-01
 1.000000e+00  3.784834e-01
 1.000000e+00  3.647544e-01
 1.000000e+00  3.512232e-01
 1.000000e+00  3.378942e-01
 1.000000e+00  3.247713e-01
 1.000000e+00  3.118588e-01
 1.000000e+00  2.991607e-01
 1.000000e+00  2.866808e-01
 1.000000e+00  2.744232e-01
 1.000000e+00  2.623915e-01
 1.000000e+00  2.505897e-01
 1.000000e+00  2.390212e-01
 1.000000e+00  2.276898e-01
 1.000000e+00  2.165990e-01
 1.000000e+00  2.057522e-01
 1.000000e+00  1.951528e-01
 1.000000e+00  1.848041e-01
 1.000000e+00  1.747093e-01
 1.000000e+00  1.648716e-01
 1.000000e+00  1.552940e-01
 1.000000e+00  1.459796e-01
 1.000000e+00  1.369311e-01
 1.000000e+00  1.281515e-01
 1.000000e+00  1.196435e-01
 1.000000e+00  1.114098e-01
 1.000000e+00  1.034528e-01
 1.000000e+00  9.577503e-02
 1.000000e+00  8.837896e-02
 1.000000e+00  8.126686e-02
 1.000000e+00  7.444093e-02
 1.000000e+00  6.790331e-02
 1.000000e+00  6.165604e-02
 1.000000e+00  5.570105e-02
 1.000000e+00  5.004020e-02
 1.000000e+00  4.467526e-02
 1.000000e+00  3.960789e-02
 1.000000e+00  3.483968e-02
 1.000000e+00  3.037212e-02
 1.000000e+00  2.620658e-02
 1.000000e+00  2.234438e-02
 1.000000e+00  1.878670e-02
 1.000000e+00  1.553467e-02
 1.000000e+00  1.258929e-02
 1.000000e+00  9.951489e-03
 1.000000e+00  7.622077e-03
 1.000000e+00  5.601784e-03
 1.000000e+00  3.891239e-03
 1.000000e+00  2.490975e-03
 1.000000e+00  1.401428e-03
 1.000000e+00  6.229377e-04
 1.000000e+00  1.557466e-04
 1.000000e+00  0.000000e+00

 1.000000e+00  1.000000e+00
 1.000000e+00  9.823515e-01
 1.000000e+00  9.647085e-01
 1.000000e+00  9.470765e-01
 1.000000e+00  9.294610e-01
 1.000000e+00  9.118675e-01
 1.000000e+00  8.943014e-01
 1.000000e+00  8.767683e-01
 1.000000e+00  8.592735e-01
 1.000000e+00  8.418226e-01
 1.000000e+00  8.244209e-01
 1.000000e+00  8.070739e-01
 1.000000e+00  7.897871e-01
 1.000000e+00  7.725657e-01
 1.000000e+00  7.554151e-01
 1.000000e+00  7.383407e-01
 1.000000e+00  7.213479e-01
 1.000000e+00  7.044418e-01
 1.000000e+00  6.876278e-01
 1.000000e+00  6.709111e-01
 1.000000e+00  6.542969e-01
 1.000000e+00  6.377904e-01
 1.000000e+00  6.213968e-01
 1.000000e+00  6.051210e-01
 1.000000e+00  5.889683e-01
 1.000000e+00  5.729436e-01
 1.000000e+00  5.570519e-01
 1.000000e+00  5.412982e-01
 1.000000e+00  5.256873e-01
 1.000000e+00  5.102243e-01
 1.000000e+00  4.949137e-01
 1.000000e+00  4.797606e-01
 1.000000e+00  4.647694e-01
 1.000000e+00  4.499450e-01
 1.000000e+00  4.352919e-01
 1.000000e+00  4.208147e-01
 1.000000e+00  4.065180e-01
 1.000000e+00  3.924061e-01
 1.000000e+00  3.784834e-01
 1.000000e+00  3.647544e-01
 1.000000e+00  3.512232e-01
 1.000000e+00  3.378942e-01
 1.000000e+00  3.247713e-01
 1.000000e+00  3.118588e-01
 1.000000e+00  2.991607e-01
 1.000000e+00  2.866808e-01
 1.000000e+00  2.744232e-01
 1.000000e+00  2.623915e-01
 1.000000e+00  2.505897e-01
 1.000000e+00  2.390212e-01
 1.000000e+00  2.276898e-01
 1.000000e+00  2.165990e-01
 1.000000e+00  2.057522e-01
 1.000000e+00  1.951528e-01
 1.000000e+00  1.848041e-01
 1.000000e+00  1.747093e-01
 1.000000e+00  1.648716e-01
 1.000000e+00  1.552940e-01
 1.000000e+00  1.459796e-01
 1.000000e+00  1.369311e-01
 1.000000e+00  1.281515e-01
 1.000000e+00  1.196435e-01
 1.000000e+00  1.114098e-01
 1.000000e+00  1.034528e-01
 1.000000e+00  9.577503e-02
 1.000000e+00  8.837896e-02
 1.000000e+00  8.126686e-02
 1.000000e+00  7.444093e-02
 1.000000e+00  6.790331e-02
 1.000000e+00  6.165604e-02
 1.000000e+00  5.570105e-02
 1.000000e+00  5.004020e-02
 1.000000e+00  4.467526e-02
 1.000000e+00  3.960789e-02
 1.000000e+00  3.483968e-02
 1.000000e+00  3.037212e-02
 1.000000e+00  2.620658e-02
 1.000000e+00  2.234438e-02
 1.000000e+00  1.878670e-02
 1.000000e+00  1.553467e-02
 1.000000e+00  1.258929e-02
 1.000000e+00  9.951489e-03
 1.000000e+00  7.622077e-03
 1.000000e+00  5.601784e-03
 1.000000e+00  3.891239e-03
 1.000000e+00  2.490975e-03
 1.000000e+00  1.401428e-03
 1.000000e+00  6.229377e-04
 1.000000e+00  1.557466e-04
 1.000000e+00  0.000000e+00

 1.000000e+00  1.000000e+00
 1.000000e+00  9.823515e-01
 1.000000e+00  9.647085e-01
 1.000000e+00  9.470765e-01
 1.000000e+00  9.294610e-01
 1.000000e+00  9.118675e-01
 1.000000e+00  8.943014e-01
 1.000000e+00  8.767683e-01
 1.000000e+00  8.592735e-01
 1.000000e+00  8.418226e-01
 1.000000e+00  8.244209e-01
 1.000000e+00  8.070739e-01
 1.000000e+00  7.897871e-01
 1.000000e+00  7.725657e-01
 1.000000e+00  7.554151e-01
 1.000000e+00  7.383407e-01
 1.000000e+00  7.213479e-01
 1.000000e+00  7.044418e-01
 1.000000e+00  6.876278e-01
 1.000000e+00  6.709111e-01
 1.000000e+00  6.542969e-01
 1.000000e+00  6.377904e-01
 1.000000e+00  6.213968e-01
 1.000000e+00  6.051210e-01
 1.000000e+00  5.889683e-01
 1.000000e+00  5.729436e-01
 1.000000e+00  5.570519e-01
 1.000000e+00  5.412982e-01
 1.000000e+00  5.256873e-01
 1.000000e+00  5.102243e-01
 1.000000e+00  4.949137e-01
 1.000000e+00  4.797606e-01
 1.000000e+00  4.647694e-01
 1.000000e+00  4.499450e-01
 1.000000e+00  4.352919e-01
 1.000000e+00  4.208147e-01
 1.000000e+00  4.065180e-01
 1.000000e+00  3.924061e-01
 1.000000e+00  3.784834e-01
 1.000000e+00  3.647544e-01
 1.000000e+00  3.512232e-01
 1.000000e+00  3.378942e-01
 1.000000e+00  3.247713e-01
 1.000000e+00  3.118588e-01
 1.000000e+00  2.991607e-01
 1.000000e+00  2.866808e-01
 1.000000e+00  2.744232e-01
 1.000000e+00  2.623915e-01
 1.000000e+00  2.505897e-01
 1.000000e+00  2.390212e-01
 1.000000e+00  2.276898e-01
 1.000000e+00  2.165990e-01
 1.000000e+00  2.057522e-01
 1.000000e+00  1.951528e-01
 1.000000e+00  1.848041e-01
 1.000000e+00  1.747093e-01
 1.000000e+00  1.648716e-01
 1.000000e+00  1.552940e-01
 1.000000e+00  1.459796e-01
 1.000000e+00  1.369311e-01
 1.000000e+00  1.281515e-01
 1.000000e+00  1.196435e-01
 1.000000e+00  1.114098e-01
 1.000000e+00  1.034528e-01
 1.000000e+00  9.577503e-02
 1.000000e+00  8.837896e-02
 1.000000e+00  8.126686e-02
 1.000000e+00  7.444093e-02
 1.000000e+00  6.790331e-02
 1.000000e+00  6.165604e-02
 1.000000e+00  5.570105e-02
 1.000000e+00  5.004020e-02
 1.000000e+00  4.467526e-02
 1.000000e+00  3.960789e-02
 1.000000e+00  3.483968e-02
 1.000000e+00  3.037212e-02
 1.000000e+00  2.620658e-02
 1.000000e+00  2.234438e-02
 1.000000e+00  1.878670e-02
 1.000000e+00  1.553467e-02
 1.000000e+00  1.258929e-02
 1.000000e+00  9.951489e-03
 1.000000e+00  7.622077e-03
 1.000000e+00  5.601784e-03
 1.000000e+00  3.891239e-03
 1.000000e+00  2.490975e-03
 1.000000e+00  1.401428e-03
 1.000000e+00  6.229377e-04
 1.000000e+00  1.557466e-04
 1.000000e+00  0.000000e+00

 1.000000e+00  1.000000e+00
 1.000000e+00  9.823515e-01
 1.000000e+00  9.647085e-01
 1.000000e+00  9.470765e-01
 1.000000e+00  9.294610e-01
 1.000000e+00  9.118675e-01
 1.000000e+00  8.943014e-01
 1.000000e+00  8.767683e-01
 1.000000e+00  8.592735e-01
 1.000000e+00  8.418226e-01
 1.000000e+00  8.244209e-01
 1.000000e+00  8.070739e-01
 1.000000e+00  7.897871e-01
 1.000000e+00  7.725657e-01
 1.000000e+00  7.554151e-01
 1.000000e+00  7.383407e-01
 1.000000e+00  7.213479e-01
 1.000000e+00  7.044418e-01
 1.000000e+00  6.876278e-01
 1.000000e+00  6.709111e-01
 1.000000e+00  6.542969e-01
 1.000000e+00  6.377904e-01
 1.000000e+00  6.213968e-01
 1.000000e+00  6.051210e-01
 1.000000e+00  5.889683e-01
 1.000000e+00  5.729436e-01
 1.000000e+00  5.570519e-01
 1.000000e+00  5.412982e-01
 1.000000e+00  5.256873e-01
 1.000000e+00  5.102243e-01
 1.000000e+00  4.949137e-01
 1.000000e+00  4.797606e-01
 1.000000e+00  4.647694e-01
 1.000000e+00  4.499450e-01
 1.000000e+00  4.352919e-01
 1.000000e+00  4.208147e-01
 1.000000e+00  4.065180e-01
 1.000000e+00  3.924061e-01
 1.000000e+00  3.784834e-01
 1.000000e+00  3.647544e-01
 1.000000e+00  3.512232e-01
 1.000000e+00  3.378942e-01
 1.000000e+00  3.247713e-01
 1.000000e+00  3.118588e-01
 1.000000e+00  2.991607e-01
 1.000000e+00  2.866808e-01
 1.000000e+00  2.744232e-01
 1.000000e+00  2.623915e-01
 1.000000e+00  2.505897e-01
 1.000000e+00  2.390212e-01
 1.000000e+00  2.276898e-01
 1.000000e+00  2.165990e-01
 1.000000e+00  2.057522e-01
 1.000000e+00  1.951528e-01
 1.000000e+00  1.848041e-01
 1.000000e+00  1.747093e-01
 1.000000e+00  1.648716e-01
 1.000000e+00  1.552940e-01
 1.000000e+00  1.459796e-01
 1.000000e+00  1.369311e-01
 1.000000e+00  1.281515e-01
 1.000000e+00  1.196435e-01
 1.000000e+00  1.114098e-01
 1.000000e+00  1.034528e-01
 1.000000e+00  9.577503e-02
 1.000000e+00  8.837896e-02
 1.000000e+00  8.126686e-02
 1.000000e+00  7.444093e-02
 1.000000e+00  6.790331e-02
 1.000000e+00  6.165604e-02
 1.000000e+00  5.570105e-02
 1.000000e+00  5.004020e-02
 1.000000e+00  4.467526e-02
 1.000000e+00  3.960789e-02
 1.000000e+00  3.483968e-02
 1.000000e+00  3.037212e-02
 1.000000e+00  2.620658e-02
 1.000000e+00  2.234438e-02
 1.000000e+00  1.878670e-02
 1.000000e+00  1.553467e-02
 1.000000e+00  1.258929e-02
 1.000000e+00  9.951489e-03
 1.000000e+00  7.622077e-03
 1.000000e+00  5.601784e-03
 1.000000e+00  3.891239e-03
 1.000000e+00  2.490975e-03
 1.000000e+00  1.401428e-03
 1.000000e+00  6.229377e-04
 1.000000e+00  1.557466e-04
 1.000000e+00  0.000000e+00

 1.000000e+00  1.000000e+00
 1.000000e+00  9.823515e-01
 1.000000e+00  9.647085e-01
 1.000000e+00  9.470765e-01
 1.000000e+00  9.294610e-01
 1.000000e+00  9.118675e-01
 1.000000e+00  8.943014e-01
 1.000000e+00  8.767683e-01
 1.000000e+00  8.592735e-01
 1.000000e+00  8.418226e-01
 1.000000e+00  8.244209e-01
 1.000000e+00  8.070739e-01
 1.000000e+00  7.897871e-01
 1.000000e+00  7.725657e-01
 1.000000e+00  7.554151e-01
 1.000000e+00  7.383407e-01
 1.000000e+00  7.213479e-01
 1.000000e+00  7.044418e-01
 1.000000e+00  6.876278e-01
 1.000000e+00  6.709111e-01
 1.000000e+00  6.542969e-01
 1.000000e+00  6.377904e-01
 1.000000e+00  6.213968e-01
 1.000000e+00  6.051210e-01
 1.000000e+00  5.889683e-01
 1.000000e+00  5.729436e-01
 1.000000e+00  5.570519e-01
 1.000000e+00  5.412982e-01
 1.000000e+00  5.256873e-01
 1.000000e+00  5.102243e-01
 1.000000e+00  4.949137e-01
 1.000000e+00  4.797606e-01
 1.000000e+00  4.647694e-01
 1.000000e+00  4.499450e-01
 1.000000e+00  4.352919e-01
 1.000000e+00  4.208147e-01
 1.000000e+00  4.065180e-01
 1.000000e+00  3.924061e-01
 1.000000e+00  3.784834e-01
 1.000000e+00  3.647544e-01
 1.000000e+00  3.512232e-01
 1.000000e+00  3.378942e-01
 1.000000e+00  3.247713e-01
 1.000000e+00  3.118588e-01
 1.000000e+00  2.991607e-01
 1.000000e+00  2.866808e-01
 1.000000e+00  2.744232e-01
 1.000000e+00  2.623915e-01
 1.000000e+00  2.505897e-01
 1.000000e+00  2.390212e-01
 1.000000e+00  2.276898e-01
 1.000000e+00  2.165990e-01
 1.000000e+00  2.057522e-01
 1.000000e+00  1.951528e-01
 1.000000e+00  1.848041e-01
 1.000000e+00  1.747093e-01
 1.000000e+00  1.648716e-01
 1.000000e+00  1.552940e-01
 1.000000e+00  1.459796e-01
 1.000000e+00  1.369311e-01
 1.000000e+00  1.281515e-01
 1.000000e+00  1.196435e-01
 1.000000e+00  1.114098e-01
 1.000000e+00  1.034528e-01
 1.000000e+00  9.577503e-02
 1.000000e+00  8.837896e-02
 1.000000e+00  8.126686e-02
 1.000000e+00  7.444093e-02
 1.000000e+00  6.790331e-02
 1.000000e+00  6.165604e-02
 1.000000e+00  5.570105e-02
 1.000000e+00  5.004020e-02
 1.000000e+00  4.467526e-02
 1.000000e+00  3.960789e-02
 1.000000e+00  3.483968e-02
 1.000000e+00  3.037212e-02
 1.000000e+00  2.620658e-02
 1.000000e+00  2.234438e-02
 1.000000e+00  1.878670e-02
 1.000000e+00  1.553467e-02
 1.000000e+00  1.258929e-02
 1.000000e+00  9.951489e-03
 1.000000e+00  7.622077e-03
 1.000000e+00  5.601784e-03
 1.000000e+00  3.891239e-03
 1.000000e+00  2.490975e-03
 1.000000e+00  1.401428e-03
 1.000000e+00  6.229377e-04
 1.000000e+00  1.557466e-04
 1.000000e+00  0.000000e+00

 1.000000e+00  1.000000e+00
 1.000000e+00  9.823515e-01
 1.000000e+00  9.647085e-01
 1.000000e+00  9.470765e-01
 1.000000e+00  9.294610e-01
 1.000000e+00  9.118675e-01
 1.000000e+00  8.943014e-01
 1.000000e+00  8.767683e-01
 1.000000e+00  8.592735e-01
 1.000000e+00  8.418226e-01
 1.000000e+00  8.244209e-01
 1.000000e+00  8.070739e-01
 1.000000e+00  7.897871e-01
 1.000000e+00  7.725657e-01
 1.000000e+00  7.554151e-01
 1.000000e+00  7.383407e-01
 1.000000e+00  7.213479e-01
 1.000000e+00  7.044418e-01
 1.000000e+00  6.876278e-01
 1.000000e+00  6.709111e-01
 1.000000e+00  6.542969e-01
 1.000000e+00  6.377904e-01
 1.000000e+00  6.213968e-01
 1.000000e+00  6.051210e-01
 1.000000e+00  5.889683e-01
 1.000000e+00  5.729436e-01
 1.000000e+00  5.570519e-01
 1.000000e+00  5.412982e-01
 1.000000e+00  5.256873e-01
 1.000000e+00  5.102243e-01
 1.000000e+00  4.949137e-01
 1.000000e+00  4.797606e-01
 1.000000e+00  4.647694e-01
 1.000000e+00  4.499450e-01
 1.000000e+00  4.352919e-01
 1.000000e+00  4.208147e-01
 1.000000e+00  4.065180e-01
 1.000000e+00  3.924061e-01
 1.000000e+00  3.784834e-01
 1.000000e+00  3.647544e-01
 1.000000e+00  3.512232e-01
 1.000000e+00  3.378942e-01
 1.000000e+00  3.247713e-01
 1.000000e+00  3.118588e-01
 1.000000e+00  2.991607e-01
 1.000000e+00  2.866808e-01
 1.000000e+00  2.744232e-01
 1.000000e+00  2.623915e-01
 1.000000e+00  2.505897e-01
 1.000000e+00  2.390212e-01
 1.000000e+00  2.276898e-01
 1.000000e+00  2.165990e-01
 1.000000e+00  2.057522e-01
 1.000000e+00  1.951528e-01
 1.000000e+00  1.848041e-01
 1.000000e+00  1.747093e-01
 1.000000e+00  1.648716e-01
 1.000000e+00  1.552940e-01
 1.000000e+00  1.459796e-01
 1.000000e+00  1.369311e-01
 1.000000e+00  1.281515e-01
 1.000000e+00  1.196435e-01
 1.000000e+00  1.114098e-01
 1.000000e+00  1.034528e-01
 1.000000e+00  9.577503e-02
 1.000000e+00  8.837896e-02
 1.000000e+00  8.126686e-02
 1.000000e+00  7.444093e-02
 1.000000e+00  6.790331e-02
 1.000000e+00  6.165604e-02
 1.000000e+00  5.570105e-02
 1.000000e+00  5.004020e-02
 1.000000e+00  4.467526e-02
 1.000000e+00  3.960789e-02
 1.000000e+00  3.483968e-02
 1.000000e+00  3.037212e-02
 1.000000e+00  2.620658e-02
 1.000000e+00  2.234438e-02
 1.000000e+00  1.878670e-02
 1.000000e+00  1.553467e-02
 1.000000e+00  1.258929e-02
 1.000000e+00  9.951489e-03
 1.000000e+00  7.622077e-03
 1.000000e+00  5.601784e-03
 1.000000e+00  3.891239e-03
 1.000000e+00  2.490975e-03
 1.000000e+00  1.401428e-03
 1.000000e+00  6.229377e-04
 1.000000e+00  1.557466e-04
 1.000000e+00  0.000000e+00

 1.000000e+00  1.000000e+00
 1.000000e+00  9.823515e-01
 1.000000e+00  9.647085e-01
 1.000000e+00  9.470765e-01
 1.000000e+00  9.294610e-01
 1.000000e+00  9.118675e-01
 1.000000e+00  8.943014e-01
 1.000000e+00  8.767683e-01
 1.000000e+00  8.592735e-01
 1.000000e+00  8.418226e-01
 1.000000e+00  8.244209e-01
 1.000000e+00  8.070739e-01
 1.000000e+00  7.897871e-01
 1.000000e+00  7.725657e-01
 1.000000e+00  7.554151e-01
 1.000000e+00  7.383407e-01
 1.000000e+00  7.213479e-01
 1.000000e+00  7.044418e-01
 1.000000e+00  6.876278e-01
 1.000000e+00  6.709111e-01
 1.000000e+00  6.542969e-01
 1.000000e+00  6.377904e-01
 1.000000e+00  6.213968e-01
 1.000000e+00  6.051210e-01
 1.000000e+00  5.889683e-01
 1.000000e+00  5.729436e-01
 1.000000e+00  5.570519e-01
 1.000000e+00  5.412982e-01
 1.000000e+00  5.256873e-01
 1.000000e+00  5.102243e-01
 1.000000e+00  4.949137e-01
 1.000000e+00  4.797606e-01
 1.000000e+00  4.647694e-01
 1.000000e+00  4.499450e-01
 1.000000e+00  4.352919e-01
 1.000000e+00  4.208147e-01
 1.000000e+00  4.065180e-01
 1.000000e+00  3.924061e-01
 1.000000e+00  3.784834e-01
 1.000000e+00  3.647544e-01
 1.000000e+00  3.512232e-01
 1.000000e+00  3.378942e-01
 1.000000e+00  3.247713e-01
 1.000000e+00  3.118588e-01
 1.000000e+00  2.991607e-01
 1.000000e+00  2.866808e-01
 1.000000e+00  2.744232e-01
 1.000000e+00  2.623915e-01
 1.000000e+00  2.505897e-01
 1.000000e+00  2.390212e-01
 1.000000e+00  2.276898e-01
 1.000000e+00  2.165990e-01
 1.000000e+00  2.057522e-01
 1.000000e+00  1.951528e-01
 1.000000e+00  1.848041e-01
 1.000000e+00  1.747093e-01
 1.000000e+00  1.648716e-01
 1.000000e+00  1.552940e-01
 1.000000e+00  1.459796e-01
 1.000000e+00  1.369311e-01
 1.000000e+00  1.281515e-01
 1.000000e+00  1.196435e-01
 1.000000e+00  1.114098e-01
 1.000000e+00  1.034528e-01
 1.000000e+00  9.577503e-02
 1.000000e+00  8.837896e-02
 1.000000e+00  8.126686e-02
 1.000000e+00  7.444093e-02
 1.000000e+00  6.790331e-02
 1.000000e+00  6.165604e-02
 1.000000e+00  5.570105e-02
 1.000000e+00  5.004020e-02
 1.000000e+00  4.467526e-02
 1.000000e+00  3.960789e-02
 1.000000e+00  3.483968e-02
 1.000000e+00  3.037212e-02
 1.000000e+00  2.620658e-02
 1.000000e+00  2.234438e-02
 1.000000e+00  1.878670e-02
 1.000000e+00  1.553467e-02
 1.000000e+00  1.258929e-02
 1.000000e+00  9.951489e-03
 1.000000e+00  7.622077e-03
 1.000000e+00  5.601784e-03
 1.000000e+00  3.891239e-03
 1.000000e+00  2.490975e-03
 1.000000e+00  1.401428e-03
 1.000000e+00  6.229377e-04
 1.000000e+00  1.557466e-04
 1.000000e+00  0.000000e+00

 1.000000e+00  1.000000e+00
 1.000000e+00  9.823515e-01
 1.000000e+00  9.647085e-01
 1.000000e+00  9.470765e-01
 1.000000e+00  9.294610e-01
 1.000000e+00  9.118675e-01
 1.000000e+00  8.943014e-01
 1.000000e+00  8.767683e-01
 1.000000e+00  8.592735e-01
 1.000000e+00  8.418226e-01
 1.000000e+00  8.244209e-01
 1.000000e+00  8.070739e-01
 1.000000e+00  7.897871e-01
 1.000000e+00  7.725657e-01
 1.000000e+00  7.554151e-01
 1.000000e+00  7.383407e-01
 1.000000e+00  7.213479e-01
 1.000000e+00  7.044418e-01
 1.000000e+00  6.876278e-01
 1.000000e+00  6.709111e-01
 1.000000e+00  6.542969e-01
 1.000000e+00  6.377904e-01
 1.000000e+00  6.213968e-01
 1.000000e+00  6.051210e-01
 1.000000e+00  5.889683e-01
 1.000000e+00  5.729436e-01
 1.000000e+00  5.570519e-01
 1.000000e+00  5.412982e-01
 1.000000e+00  5.256873e-01
 1.000000e+00  5.102243e-01
 1.000000e+00  4.949137e-01
 1.000000e+00  4.797606e-01
 1.000000e+00  4.647694e-01
 1.000000e+00  4.499450e-01
 1.000000e+00  4.352919e-01
 1.000000e+00  4.208147e-01
 1.000000e+00  4.065180e-01
 1.000000e+00  3.924061e-01
 1.000000e+00  3.784834e-01
 1.000000e+00  3.647544e-01
 1.000000e+00  3.512232e-01
 1.000000e+00  3.378942e-01
 1.000000e+00  3.247713e-01
 1.000000e+00  3.118588e-01
 1.000000e+00  2.991607e-01
 1.000000e+00  2.866808e-01
 1.000000e+00  2.744232e-01
 1.000000e+00  2.623915e-01
 1.000000e+00  2.505897e-01
 1.000000e+00  2.390212e-01
 1.000000e+00  2.276898e-01
 1.000000e+00  2.165990e-01
 1.000000e+00  2.057522e-01
 1.000000e+00  1.951528e-01
 1.000000e+00  1.848041e-01
 1.000000e+00  1.747093e-01
 1.000000e+00  1.648716e-01
 1.000000e+00  1.552940e-01
 1.000000e+00  1.459796e-01
 1.000000e+00  1.369311e-01
 1.000000e+00  1.281515e-01
 1.000000e+00  1.196435e-01
 1.000000e+00  1.114098e-01
 1.000000e+00  1.034528e-01
 1.000000e+00  9.577503e-02
 1.000000e+00  8.837896e-02
 1.000000e+00  8.126686e-02
 1.000000e+00  7.444093e-02
 1.000000e+00  6.790331e-02
 1.000000e+00  6.165604e-02
 1.000000e+00  5.570105e-02
 1.000000e+00  5.004020e-02
 1.000000e+00  4.467526e-02
 1.000000e+00  3.960789e-02
 1.000000e+00  3.483968e-02
 1.000000e+00  3.037212e-02
 1.000000e+00  2.620658e-02
 1.000000e+00  2.234438e-02
 1.000000e+00  1.878670e-02
 1.000000e+00  1.553467e-02
 1.000000e+00  1.258929e-02
 1.000000e+00  9.951489e-03
 1.000000e+00  7.622077e-03
 1.000000e+00  5.601784e-03
 1.000000e+00  3.891239e-03
 1.000000e+00  2.490975e-03
 1.000000e+00  1.401428e-03
 1.000000e+00  6.229377e-04
 1.000000e+00  1.557466e-04
 1.000000e+00  0.000000e+00

 1.000000e+00  1.000000e+00
 1.000000e+00  9.823515e-01
 1.000000e+00  9.647085e-01
 1.000000e+00  9.470765e-01
 1.000000e+00  9.294610e-01
 1.000000e+00  9.118675e-01
 1.000000e+00  8.943014e-01
 1.000000e+00  8.767683e-01
 1.000000e+00  8.592735e-01
 1.000000e+00  8.418226e-01
 1.000000e+00  8.244209e-01
 1.000000e+00  8.070739e-01
 1.000000e+00  7.897871e-01
 1.000000e+00  7.725657e-01
 1.000000e+00  7.554151e-01
 1.000000e+00  7.383407e-01
 1.000000e+00  7.213479e-01
 1.000000e+00  7.044418e-01
 1.000000e+00  6.876278e-01
 1.000000e+00  6.709111e-01
 1.000000e+00  6.542969e-01
 1.000000e+00  6.377904e-01
 1.000000e+00  6.213968e-01
 1.000000e+00  6.051210e-01
 1.000000e+00  5.889683e-01
 1.000000e+00  5.729436e-01
 1.000000e+00  5.570519e-01
 1.000000e+00  5.412982e-01
 1.000000e+00  5.256873e-01
 1.000000e+00  5.102243e-01
 1.000000e+00  4.949137e-01
 1.000000e+00  4.797606e-01
 1.000000e+00  4.647694e-01
 1.000000e+00  4.499450e-01
 1.000000e+00  4.352919e-01
 1.000000e+00  4.208147e-01
 1.000000e+00  4.065180e-01
 1.000000e+00  3.924061e-01
 1.000000e+00  3.784834e-01
 1.000000e+00  3.647544e-01
 1.000000e+00  3.512232e-01
 1.000000e+00  3.378942e-01
 1.000000e+00  3.247713e-01
 1.000000e+00  3.118588e-01
 1.000000e+00  2.991607e-01
 1.000000e+00  2.866808e-01
 1.000000e+00  2.744232e-01
 1.000000e+00  2.623915e-01
 1.000000e+00  2.505897e-01
 1.000000e+00  2.390212e-01
 1.000000e+00  2.276898e-01
 1.000000e+00  2.165990e-01
 1.000000e+00  2.057522e-01
 1.000000e+00  1.951528e-01
 1.000000e+00  1.848041e-01
 1.000000e+00  1.747093e-01
 1.000000e+00  1.648716e-01
 1.000000e+00  1.552940e-01
 1.000000e+00  1.459796e-01
 1.000000e+00  1.369311e-01
 1.000000e+00  1.281515e-01
 1.000000e+00  1.196435e-01
 1.000000e+00  1.114098e-01
 1.000000e+00  1.034528e-01
 1.000000e+00  9.577503e-02
 1.000000e+00  8.837896e-02
 1.000000e+00  8.126686e-02
 1.000000e+00  7.444093e-02
 1.000000e+00  6.790331e-02
 1.000000e+00  6.165604e-02
 1.000000e+00  5.570105e-02
 1.000000e+00  5.004020e-02
 1.000000e+00  4.467526e-02
 1.000000e+00  3.960789e-02
 1.000000e+00  3.483968e-02
 1.000000e+00  3.037212e-02
 1.000000e+00  2.620658e-02
 1.000000e+00  2.234438e-02
 1.000000e+00  1.878670e-02
 1.000000e+00  1.553467e-02
 1.000000e+00  1.258929e-02
 1.000000e+00  9.951489e-03
 1.000000e+00  7.622077e-03
 1.000000e+00  5.601784e-03
 1.000000e+00  3.891239e-03
 1.000000e+00  2.490975e-03
 1.000000e+00  1.401428e-03
 1.000000e+00  6.229377e-04
 1.000000e+00  1.557466e-04
 1.000000e+00  0.000000e+00

 1.000000e+00  1.000000e+00
 1.000000e+00  9.823515e-01
 1.000000e+00  9.647085e-01
 1.000000e+00  9.470765e-01
 1.000000e+00  9.294610e-01
 1.000000e+00  9.118675e-01
 1.000000e+00  8.943014e-01
 1.000000e+00  8.767683e-01
 1.000000e+00  8.592735e-01
 1.000000e+00  8.418226e-01
 1.000000e+00  8.244209e-01
 1.000000e+00  8.070739e-01
 1.000000e+00  7.897871e-01
 1.000000e+00  7.725657e-01
 1.000000e+00  7.554151e-01
 1.000000e+00  7.383407e-01
 1.000000e+00  7.213479e-01
 1.000000e+00  7.044418e-01
 1.000000e+00  6.876278e-01
 1.000000e+00  6.709111e-01
 1.000000e+00  6.542969e-01
 1.000000e+00  6.377904e-01
 1.000000e+00  6.213968e-01
 1.000000e+00  6.051210e-01
 1.000000e+00  5.889683e-01
 1.000000e+00  5.729436e-01
 1.000000e+00  5.570519e-01
 1.000000e+00  5.412982e-01
 1.000000e+00  5.256873e-01
 1.000000e+00  5.102243e-01
 1.000000e+00  4.949137e-01
 1.000000e+00  4.797606e-01
 1.000000e+00  4.647694e-01
 1.000000e+00  4.499450e-01
 1.000000e+00  4.352919e-01
 1.000000e+00  4.208147e-01
 1.000000e+00  4.065180e-01
 1.000000e+00  3.924061e-01
 1.000000e+00  3.784834e-01
 1.000000e+00  3.647544e-01
 1.000000e+00  3.512232e-01
 1.000000e+00  3.378942e-01
 1.000000e+00  3.247713e-01
 1.000000e+00  3.118588e-01
 1.000000e+00  2.991607e-01
 1.000000e+00  2.866808e-01
 1.000000e+00  2.744232e-01
 1.000000e+00  2.623915e-01
 1.000000e+00  2.505897e-01
 1.000000e+00  2.390212e-01
 1.000000e+00  2.276898e-01
 1.000000e+00  2.165990e-01
 1.000000e+00  2.057522e-01
 1.000000e+00  1.951528e-01
 1.000000e+00  1.848041e-01
 1.000000e+00  1.747093e-01
 1.000000e+00  1.648716e-01
 1.000000e+00  1.552940e-01
 1.000000e+00  1.459796e-01
 1.000000e+00  1.369311e-01
 1.000000e+00  1.281515e-01
 1.000000e+00  1.196435e-01
 1.000000e+00  1.114098e-01
 1.000000e+00  1.034528e-01
 1.000000e+00  9.577503e-02
 1.000000e+00  8.837896e-02
 1.000000e+00  8.126686e-02
 1.000000e+00  7.444093e-02
 1.000000e+00  6.790331e-02
 1.000000e+00  6.165604e-02
 1.000000e+00  5.570105e-02
 1.000000e+00  5.004020e-02
 1.000000e+00  4.467526e-02
 1.000000e+00  3.960789e-02
 1.000000e+00  3.483968e-02
 1.000000e+00  3.037212e-02
 1.000000e+00  2.620658e-02
 1.000000e+00  2.234438e-02
 1.000000e+00  1.878670e-02
 1.000000e+00  1.553467e-02
 1.000000e+00  1.258929e-02
 1.000000e+00  9.951489e-03
 1.000000e+00  7.622077e-03
 1.000000e+00  5.601784e-03
 1.000000e+00  3.891239e-03
 1.000000e+00  2.490975e-03
 1.000000e+00  1.401428e-03
 1.000000e+00  6.229377e-04
 1.000000e+00  1.557466e-04
 1.000000e+00  0.000000e+00

 1.000000e+00  1.000000e+00
 1.000000e+00  9.823515e-01
 1.000000e+00  9.647085e-01
 1.000000e+00  9.470765e-01
 1.000000e+00  9.294610e-01
 1.000000e+00  9.118675e-01
 1.000000e+00  8.943014e-01
 1.000000e+00  8.767683e-01
 1.000000e+00  8.592735e-01
 1.000000e+00  8.418226e-01
 1.000000e+00  8.244209e-01
 1.000000e+00  8.070739e-01
 1.000000e+00  7.897871e-01
 1.000000e+00  7.725657e-01
 1.000000e+00  7.554151e-01
 1.000000e+00  7.383407e-01
 1.000000e+00  7.213479e-01
 1.000000e+00  7.044418e-01
 1.000000e+00  6.876278e-01
 1.000000e+00  6.709111e-01
 1.000000e+00  6.542969e-01
 1.000000e+00  6.377904e-01
 1.000000e+00  6.213968e-01
 1.000000e+00  6.051210e-01
 1.000000e+00  5.889683e-01
 1.000000e+00  5.729436e-01
 1.000000e+00  5.570519e-01
 1.000000e+00  5.412982e-01
 1.000000e+00  5.256873e-01
 1.000000e+00  5.102243e-01
 1.000000e+00  4.949137e-01
 1.000000e+00  4.797606e-01
 1.000000e+00  4.647694e-01
 1.000000e+00  4.499450e-01
 1.000000e+00  4.352919e-01
 1.000000e+00  4.208147e-01
 1.000000e+00  4.065180e-01
 1.000000e+00  3.924061e-01
 1.000000e+00  3.784834e-01
 1.000000e+00  3.647544e-01
 1.000000e+00  3.512232e-01
 1.000000e+00  3.378942e-01
 1.000000e+00  3.247713e-01
 1.000000e+00  3.118588e-01
 1.000000e+00  2.991607e-01
 1.000000e+00  2.866808e-01
 1.000000e+00  2.744232e-01
 1.000000e+00  2.623915e-01
 1.000000e+00  2.505897e-01
 1.000000e+00  2.390212e-01
 1.000000e+00  2.276898e-01
 1.000000e+00  2.165990e-01
 1.000000e+00  2.057522e-01
 1.000000e+00  1.951528e-01
 1.000000e+00  1.848041e-01
 1.000000e+00  1.747093e-01
 1.000000e+00  1.648716e-01
 1.000000e+00  1.552940e-01
 1.000000e+00  1.459796e-01
 1.000000e+00  1.369311e-01
 1.000000e+00  1.281515e-01
 1.000000e+00  1.196435e-01
 1.000000e+00  1.114098e-01
 1.000000e+00  1.034528e-01
 1.000000e+00  9.577503e-02
 1.000000e+00  8.837896e-02
 1.000000e+00  8.126686e-02
 1.000000e+00  7.444093e-02
 1.000000e+00  6.790331e-02
 1.000000e+00  6.165604e-02
 1.000000e+00  5.570105e-02
 1.000000e+00  5.004020e-02
 1.000000e+00  4.467526e-02
 1.000000e+00  3.960789e-02
 1.000000e+00  3.483968e-02
 1.000000e+00  3.037212e-02
 1.000000e+00  2.620658e-02
 1.000000e+00  2.234438e-02
 1.000000e+00  1.878670e-02
 1.000000e+00  1.553467e-02
 1.000000e+00  1.258929e-02
 1.000000e+00  9.951489e-03
 1.000000e+00  7.622077e-03
 1.000000e+00  5.601784e-03
 1.000000e+00  3.891239e-03
 1.000000e+00  2.490975e-03
 1.000000e+00  1.401428e-03
 1.000000e+00  6.229377e-04
 1.000000e+00  1.557466e-04
 1.000000e+00  0.000000e+00

 1.000000e+00  1.000000e+00
 1.000000e+00  9.823515e-01
 1.000000e+00  9.647085e-01
 1.000000e+00  9.470765e-01
 1.000000e+00  9.294610e-01
 1.000000e+00  9.118675e-01
 1.000000e+00  8.943014e-01
 1.000000e+00  8.767683e-01
 1.000000e+00  8.592735e-01
 1.000000e+00  8.418226e-01
 1.000000e+00  8.244209e-01
 1.000000e+00  8.070739e-01
 1.000000e+00  7.897871e-01
 1.000000e+00  7.725657e-01
 1.000000e+00  7.554151e-01
 1.000000e+00  7.383407e-01
 1.000000e+00  7.213479e-01
 1.000000e+00  7.044418e-01
 1.000000e+00  6.876278e-01
 1.000000e+00  6.709111e-01
 1.000000e+00  6.542969e-01
 1.000000e+00  6.377904e-01
 1.000000e+00  6.213968e-01
 1.000000e+00  6.051210e-01
 1.000000e+00  5.889683e-01
 1.000000e+00  5.729436e-01
 1.000000e+00  5.570519e-01
 1.000000e+00  5.412982e-01
 1.000000e+00  5.256873e-01
 1.000000e+00  5.102243e-01
 1.000000e+00  4.949137e-01
 1.000000e+00  4.797606e-01
 1.000000e+00  4.647694e-01
 1.000000e+00  4.499450e-01
 1.000000e+00  4.352919e-01
 1.000000e+00  4.208147e-01
 1.000000e+00  4.065180e-01
 1.000000e+00  3.924061e-01
 1.000000e+00  3.784834e-01
 1.000000e+00  3.647544e-01
 1.000000e+00  3.512232e-01
 1.000000e+00  3.378942e-01
 1.000000e+00  3.247713e-01
 1.000000e+00  3.118588e-01
 1.000000e+00  2.991607e-01
 1.000000e+00  2.866808e-01
 1.000000e+00  2.744232e-01
 1.000000e+00  2.623915e-01
 1.000000e+00  2.505897e-01
 1.000000e+00  2.390212e-01
 1.000000e+00  2.276898e-01
 1.000000e+00  2.165990e-01
 1.000000e+00  2.057522e-01
 1.000000e+00  1.951528e-01
 1.000000e+00  1.848041e-01
 1.000000e+00  1.747093e-01
 1.000000e+00  1.648716e-01
 1.000000e+00  1.552940e-01
 1.000000e+00  1.459796e-01
 1.000000e+00  1.369311e-01
 1.000000e+00  1.281515e-01
 1.000000e+00  1.196435e-01
 1.000000e+00  1.114098e-01
 1.000000e+00  1.034528e-01
 1.000000e+00  9.577503e-02
 1.000000e+00  8.837896e-02
 1.000000e+00  8.126686e-02
 1.000000e+00  7.444093e-02
 1.000000e+00  6.790331e-02
 1.000000e+00  6.165604e-02
 1.000000e+00  5.570105e-02
 1.000000e+00  5.004020e-02
 1.000000e+00  4.467526e-02
 1.000000e+00  3.960789e-02
 1.000000e+00  3.483968e-02
 1.000000e+00  3.037212e-02
 1.000000e+00  2.620658e-02
 1.000000e+00  2.234438e-02
 1.000000e+00  1.878670e-02
 1.000000e+00  1.553467e-02
 1.000000e+00  1.258929e-02
 1.000000e+00  9.951489e-03
 1.000000e+00  7.622077e-03
 1.000000e+00  5.601784e-03
 1.000000e+00  3.891239e-03
 1.000000e+00  2.490975e-03
 1.000000e+00  1.401428e-03
 1.000000e+00  6.229377e-04
 1.000000e+00  1.557466e-04
 1.000000e+00  0.000000e+00

 1.000000e+00  1.000000e+00
 1.000000e+00  9.823515e-01
 1.000000e+00  9.647085e-01
 1.000000e+00  9.470765e-01
 1.000000e+00  9.294610e-01
 1.000000e+00  9.118675e-01
 1.000000e+00  8.943014e-01
 1.000000e+00  8.767683e-01
 1.000000e+00  8.592735e-01
 1.000000e+00  8.418226e-01
 1.000000e+00  8.244209e-01
 1.000000e+00  8.070739e-01
 1.000000e+00  7.897871e-01
 1.000000e+00  7.725657e-01
 1.000000e+00  7.554151e-01
 1.000000e+00  7.383407e-01
 1.000000e+00  7.213479e-01
 1.000000e+00  7.044418e-01
 1.000000e+00  6.876278e-01
 1.000000e+00  6.709111e-01
 1.000000e+00  6.542969e-01
 1.000000e+00  6.377904e-01
 1.000000e+00  6.213968e-01
 1.000000e+00  6.051210e-01
 1.000000e+00  5.889683e-01
 1.000000e+00  5.729436e-01
 1.000000e+00  5.570519e-01
 1.000000e+00  5.412982e-01
 1.000000e+00  5.256873e-01
 1.000000e+00  5.102243e-01
 1.000000e+00  4.949137e-01
 1.000000e+00  4.797606e-01
 1.000000e+00  4.647694e-01
 1.000000e+00  4.499450e-01
 1.000000e+00  4.352919e-01
 1.000000e+00  4.208147e-01
 1.000000e+00  4.065180e-01
 1.000000e+00  3.924061e-01
 1.000000e+00  3.784834e-01
 1.000000e+00  3.647544e-01
 1.000000e+00  3.512232e-01
 1.000000e+00  3.378942e-01
 1.000000e+00  3.247713e-01
 1.000000e+00  3.118588e-01
 1.000000e+00  2.991607e-01
 1.000000e+00  2.866808e-01
 1.000000e+00  2.744232e-01
 1.000000e+00  2.623915e-01
 1.000000e+00  2.505897e-01
 1.000000e+00  2.390212e-01
 1.000000e+00  2.276898e-01
 1.000000e+00  2.165990e-01
 1.000000e+00  2.057522e-01
 1.000000e+00  1.951528e-01
 1.000000e+00  1.848041e-01
 1.000000e+00  1.747093e-01
 1.000000e+00  1.648716e-01
 1.000000e+00  1.552940e-01
 1.000000e+00  1.459796e-01
 1.000000e+00  1.369311e-01
 1.000000e+00  1.281515e-01
 1.000000e+00  1.196435e-01
 1.000000e+00  1.114098e-01
 1.000000e+00  1.034528e-01
 1.000000e+00  9.577503e-02
 1.000000e+00  8.837896e-02
 1.000000e+00  8.126686e-02
 1.000000e+00  7.444093e-02
 1.000000e+00  6.790331e-02
 1.000000e+00  6.165604e-02
 1.000000e+00  5.570105e-02
 1.000000e+00  5.004020e-02
 1.000000e+00  4.467526e-02
 1.000000e+00  3.960789e-02
 1.000000e+00  3.483968e-02
 1.000000e+00  3.037212e-02
 1.000000e+00  2.620658e-02
 1.000000e+00  2.234438e-02
 1.000000e+00  1.878670e-02
 1.000000e+00  1.553467e-02
 1.000000e+00  1.258929e-02
 1.000000e+00  9.951489e-03
 1.000000e+00  7.622077e-03
 1.000000e+00  5.601784e-03
 1.000000e+00  3.891239e-03
 1.000000e+00  2.490975e-03
 1.000000e+00  1.401428e-03
 1.000000e+00  6.229377e-04
 1.000000e+00  1.557466e-04
 1.000000e+00  0.000000e+00

