2
1 250

 6.960000e+10  1.988920e+33  0.000000e+00  0.000000e+00  0.000000e+00

 5.000000e-01
 5.357597e-01
 5.740768e-01
 6.151344e-01
 6.591284e-01
 7.062688e-01
 7.567806e-01
 8.109050e-01
 8.689004e-01
 9.310436e-01
 9.976312e-01
 1.068981e+00
 1.145434e+00
 1.227354e+00
 1.315134e+00
 1.409191e+00
 1.509976e+00
 1.617968e+00
 1.733684e+00
 1.857676e+00
 1.990536e+00
 2.132898e+00
 2.285441e+00
 2.448894e+00
 2.624037e+00
 2.811707e+00
 3.012798e+00
 3.228271e+00
 3.459155e+00
 3.706551e+00
 3.971641e+00
 4.255690e+00
 4.560054e+00
 4.886186e+00
 5.235643e+00
 5.610092e+00
 6.011322e+00
 6.441248e+00
 6.901921e+00
 7.395542e+00
 7.924466e+00
 8.491218e+00
 9.098504e+00
 9.749223e+00
 1.044648e+01
 1.119361e+01
 1.199416e+01
 1.285198e+01
 1.377114e+01
 1.475605e+01
 1.581139e+01
 1.694221e+01
 1.815390e+01
 1.945226e+01
 2.084347e+01
 2.233418e+01
 2.393150e+01
 2.564307e+01
 2.747704e+01
 2.944218e+01
 3.154787e+01
 3.380415e+01
 3.622180e+01
 3.881236e+01
 4.158819e+01
 4.456255e+01
 4.774963e+01
 5.116465e+01
 5.482391e+01
 5.874488e+01
 6.294627e+01
 6.744814e+01
 7.227199e+01
 7.744083e+01
 8.297935e+01
 8.891397e+01
 9.527304e+01
 1.020869e+02
 1.093881e+02
 1.172114e+02
 1.255943e+02
 1.345767e+02
 1.442016e+02
 1.545148e+02
 1.655656e+02
 1.774067e+02
 1.900947e+02
 2.036901e+02
 2.182579e+02
 2.338676e+02
 2.505936e+02
 2.685159e+02
 2.877200e+02
 3.082975e+02
 3.303467e+02
 3.539729e+02
 3.792888e+02
 4.064153e+02
 4.354818e+02
 4.666272e+02
 5.000000e+02
 5.116465e+02
 5.235643e+02
 5.357597e+02
 5.482391e+02
 5.610092e+02
 5.740768e+02
 5.874488e+02
 6.011322e+02
 6.151344e+02
 6.294627e+02
 6.441248e+02
 6.591284e+02
 6.744814e+02
 6.901921e+02
 7.062688e+02
 7.227199e+02
 7.395542e+02
 7.567806e+02
 7.744083e+02
 7.924466e+02
 8.109050e+02
 8.297935e+02
 8.491218e+02
 8.689004e+02
 8.891397e+02
 9.098504e+02
 9.310436e+02
 9.527304e+02
 9.749223e+02
 9.976312e+02
 1.020869e+03
 1.044648e+03
 1.068981e+03
 1.093881e+03
 1.119361e+03
 1.145434e+03
 1.172114e+03
 1.199416e+03
 1.227354e+03
 1.255943e+03
 1.285198e+03
 1.315134e+03
 1.345767e+03
 1.377114e+03
 1.409191e+03
 1.442016e+03
 1.475605e+03
 1.509976e+03
 1.545148e+03
 1.581139e+03
 1.617968e+03
 1.655656e+03
 1.694221e+03
 1.733684e+03
 1.774067e+03
 1.815390e+03
 1.857676e+03
 1.900947e+03
 1.945226e+03
 1.990536e+03
 2.036901e+03
 2.084347e+03
 2.132898e+03
 2.182579e+03
 2.233418e+03
 2.285441e+03
 2.338676e+03
 2.393150e+03
 2.448894e+03
 2.505936e+03
 2.564307e+03
 2.624037e+03
 2.685159e+03
 2.747704e+03
 2.811707e+03
 2.877200e+03
 2.944218e+03
 3.012798e+03
 3.082975e+03
 3.154787e+03
 3.228271e+03
 3.303467e+03
 3.380415e+03
 3.459155e+03
 3.539729e+03
 3.622180e+03
 3.706551e+03
 3.792888e+03
 3.881236e+03
 3.971641e+03
 4.064153e+03
 4.158819e+03
 4.255690e+03
 4.354818e+03
 4.456255e+03
 4.560054e+03
 4.666272e+03
 4.774963e+03
 4.886186e+03
 5.000000e+03
 5.240566e+03
 5.492706e+03
 5.756977e+03
 6.033963e+03
 6.324276e+03
 6.628557e+03
 6.947477e+03
 7.281742e+03
 7.632090e+03
 7.999294e+03
 8.384165e+03
 8.787553e+03
 9.210350e+03
 9.653489e+03
 1.011795e+04
 1.060475e+04
 1.111498e+04
 1.164976e+04
 1.221027e+04
 1.279774e+04
 1.341348e+04
 1.405884e+04
 1.473526e+04
 1.544422e+04
 1.618729e+04
 1.696611e+04
 1.778240e+04
 1.863797e+04
 1.953470e+04
 2.047458e+04
 2.145967e+04
 2.249216e+04
 2.357433e+04
 2.470857e+04
 2.589737e+04
 2.714338e+04
 2.844933e+04
 2.981812e+04
 3.125276e+04
 3.275643e+04
 3.433244e+04
 3.598428e+04
 3.771560e+04
 3.953022e+04
 4.143214e+04
 4.342557e+04
 4.551491e+04
 4.770477e+04
 5.000000e+04

-3.250333e+03
