250
0.5
0.5357596526188032
0.5740768107484414
0.6151343854061908
0.6591283692782035
0.7062687723113772
0.7567806242181041
0.810905048679465
0.8689004143746877
0.9310435683314338
0.9976311574844398
1.0689810447511159
1.1454338263838866
1.2273544578425153
1.3151339959476909
1.4091914656322269
1.509975860201008
1.6179682846481414
1.7336842522626583
1.8576761454858626
1.9905358527674861
2.132897594007963
2.285440948074375
2.448894096842231
2.6240373012488627
2.8117066259517456
3.012797930371789
3.2282711451732777
3.4591548545946824
3.706551206504588
3.971641173621406
4.255690191011881
4.560054196779547
4.8861861047790525
5.235642740254497
5.610092271509817
6.0113221730870645
6.441247758465667
6.901921323014422
7.395541940841035
7.9244659623055655
8.49121826230872
9.098504293049917
9.749222998790225
10.446480654270193
11.193605692841693
11.994164595097448
12.851978913844315
13.77114351669083
14.756046133331926
15.811388300841895
16.942207806960127
18.153902738505067
19.45225724971402
20.843469173516763
22.334179607548148
23.93150461613191
25.643069199568238
27.477043692881225
29.442182767779446
31.547867224009646
33.804148769599074
36.22179800374949
38.81235583143457
41.588188555133534
44.56254690668727
47.74962930107179
51.16464961403767
54.82390980715925
58.74487774697645
62.94627058970836
67.44814412958266
72.2719885372964
77.44083094562404
82.97934537187797
88.91397050194612
95.2730358981623
102.08689723347646
109.38808119747758
117.21144076599612
125.59432157547896
134.57674019634567
144.20157515633028
154.51477162567943
165.56556074129554
177.40669461678763
190.09469816028061
203.69013890205628
218.2579161200828
233.86757064359904
250.59361681363595
268.51589818512633
287.7199686685783
308.2975009307411
330.3467240037978
353.97289219206897
379.2887875145917
406.41525808204926
435.4817949780402
466.6271503984952
499.99999999999994
511.64649614037677
523.5642740254497
535.7596526188029
548.2390980715925
561.0092271509814
574.0768107484414
587.4487774697644
601.1322173087065
615.1343854061905
629.4627058970837
644.1247758465668
659.1283692782036
674.4814412958266
690.1921323014425
706.2687723113769
722.7198853729639
739.5541940841035
756.7806242181042
774.4083094562404
792.4465962305569
810.9050486794648
829.7934537187806
849.121826230872
868.900414374688
889.1397050194613
909.8504293049912
931.0435683314337
952.730358981624
974.9222998790226
997.6311574844393
1020.8689723347646
1044.6480654270192
1068.981044751116
1093.8808119747757
1119.36056928417
1145.433826383886
1172.1144076599612
1199.4164595097448
1227.3544578425153
1255.9432157547897
1285.197891384432
1315.1339959476907
1345.7674019634583
1377.114351669083
1409.1914656322274
1442.0157515633027
1475.6046133331934
1509.975860201008
1545.1477162567958
1581.1388300841895
1617.9682846481403
1655.6556074129553
1694.2207806960134
1733.684252262658
1774.0669461678763
1815.3902738505067
1857.6761454858636
1900.946981602806
1945.225724971402
1990.5358527674864
2036.9013890205629
2084.3469173516773
2132.8975940079627
2182.57916120083
2233.417960754815
2285.4409480743757
2338.6757064359904
2393.1504616131924
2448.8940968422303
2505.936168136362
2564.3069199568235
2624.0373012488612
2685.158981851263
2747.704369288124
2811.706625951745
2877.199686685783
2944.2182767779445
3012.7979303717902
3082.975009307411
3154.7867224009647
3228.2711451732775
3303.467240037982
3380.414876959909
3459.1548545946807
3539.72892192069
3622.1798003749486
3706.551206504588
3792.8878751459174
3881.2355831434593
3971.6411736214063
4064.152580820497
4158.818855513354
4255.690191011883
4354.817949780402
4456.2546906687285
4560.054196779548
4666.271503984952
4774.962930107179
4886.186104779055
4999.999999999999
5240.565670773425
5492.705709937791
5756.976996632234
6033.963203196644
6324.276084276478
6628.556827950547
6947.477471865686
7281.742387506221
7632.089835876166
7999.2935980302855
8384.16468405504
8787.553124273954
9210.34984663358
9653.488644416248
10117.948238625777
10604.754439600962
11114.982412630976
11649.759052576857
12210.265472743247
12797.739613497664
13413.478976398635
14058.843489871153
14735.258512759046
15444.21798238739
16187.28771408823
16966.108859476648
17782.40153111564
18637.96860157469
19534.699685273103
20474.575311902136
21459.671300643888
22492.163344847217
23574.331817286944
24708.566806619187
25897.37339615606
27143.377196619294
28449.330145091462
29818.11658297318
31252.759626369876
32756.42784297754
34332.44225021499
35984.283650057565
37715.60031677311
39530.216054538505
41432.13864273421
43425.5686875676
45514.90889957613
47704.773817499714
49999.99999999999
