1
101
90

 1.000000e-01
 1.122018e-01
 1.258925e-01
 1.412538e-01
 1.584893e-01
 1.778279e-01
 1.995262e-01
 2.238721e-01
 2.511886e-01
 2.818383e-01
 3.162278e-01
 3.548134e-01
 3.981072e-01
 4.466836e-01
 5.011872e-01
 5.623413e-01
 6.309573e-01
 7.079458e-01
 7.943282e-01
 8.912509e-01
 1.000000e+00
 1.122018e+00
 1.258925e+00
 1.412538e+00
 1.584893e+00
 1.778279e+00
 1.995262e+00
 2.238721e+00
 2.511886e+00
 2.818383e+00
 3.162278e+00
 3.548134e+00
 3.981072e+00
 4.466836e+00
 5.011872e+00
 5.623413e+00
 6.309573e+00
 7.079458e+00
 7.943282e+00
 8.912509e+00
 1.000000e+01
 1.122018e+01
 1.258925e+01
 1.412538e+01
 1.584893e+01
 1.778279e+01
 1.995262e+01
 2.238721e+01
 2.511886e+01
 2.818383e+01
 3.162278e+01
 3.548134e+01
 3.981072e+01
 4.466836e+01
 5.011872e+01
 5.623413e+01
 6.309573e+01
 7.079458e+01
 7.943282e+01
 8.912509e+01
 1.000000e+02
 1.122018e+02
 1.258925e+02
 1.412538e+02
 1.584893e+02
 1.778279e+02
 1.995262e+02
 2.238721e+02
 2.511886e+02
 2.818383e+02
 3.162278e+02
 3.548134e+02
 3.981072e+02
 4.466836e+02
 5.011872e+02
 5.623413e+02
 6.309573e+02
 7.079458e+02
 7.943282e+02
 8.912509e+02
 1.000000e+03
 1.122018e+03
 1.258925e+03
 1.412538e+03
 1.584893e+03
 1.778279e+03
 1.995262e+03
 2.238721e+03
 2.511886e+03
 2.818383e+03
 3.162278e+03
 3.548134e+03
 3.981072e+03
 4.466836e+03
 5.011872e+03
 5.623413e+03
 6.309573e+03
 7.079458e+03
 7.943282e+03
 8.912509e+03
 1.000000e+04
 0.000000e+00
 1.011236e+00
 2.022472e+00
 3.033708e+00
 4.044944e+00
 5.056180e+00
 6.067416e+00
 7.078652e+00
 8.089888e+00
 9.101124e+00
 1.011236e+01
 1.112360e+01
 1.213483e+01
 1.314607e+01
 1.415730e+01
 1.516854e+01
 1.617978e+01
 1.719101e+01
 1.820225e+01
 1.921348e+01
 2.022472e+01
 2.123596e+01
 2.224719e+01
 2.325843e+01
 2.426966e+01
 2.528090e+01
 2.629213e+01
 2.730337e+01
 2.831461e+01
 2.932584e+01
 3.033708e+01
 3.134831e+01
 3.235955e+01
 3.337079e+01
 3.438202e+01
 3.539326e+01
 3.640449e+01
 3.741573e+01
 3.842697e+01
 3.943820e+01
 4.044944e+01
 4.146067e+01
 4.247191e+01
 4.348315e+01
 4.449438e+01
 4.550562e+01
 4.651685e+01
 4.752809e+01
 4.853933e+01
 4.955056e+01
 5.056180e+01
 5.157303e+01
 5.258427e+01
 5.359551e+01
 5.460674e+01
 5.561798e+01
 5.662921e+01
 5.764045e+01
 5.865169e+01
 5.966292e+01
 6.067416e+01
 6.168539e+01
 6.269663e+01
 6.370787e+01
 6.471910e+01
 6.573034e+01
 6.674157e+01
 6.775281e+01
 6.876404e+01
 6.977528e+01
 7.078652e+01
 7.179775e+01
 7.280899e+01
 7.382022e+01
 7.483146e+01
 7.584270e+01
 7.685393e+01
 7.786517e+01
 7.887640e+01
 7.988764e+01
 8.089888e+01
 8.191011e+01
 8.292135e+01
 8.393258e+01
 8.494382e+01
 8.595506e+01
 8.696629e+01
 8.797753e+01
 8.898876e+01
 9.000000e+01
 1.000000e+00  1.000000e+00
 1.000031e+00  9.999689e-01
 1.000125e+00  9.998755e-01
 1.000280e+00  9.997199e-01
 1.000498e+00  9.995024e-01
 1.000777e+00  9.992233e-01
 1.001117e+00  9.988828e-01
 1.001519e+00  9.984814e-01
 1.001980e+00  9.980196e-01
 1.002502e+00  9.974980e-01
 1.003083e+00  9.969172e-01
 1.003722e+00  9.962780e-01
 1.004419e+00  9.955811e-01
 1.005173e+00  9.948274e-01
 1.005982e+00  9.940178e-01
 1.006847e+00  9.931534e-01
 1.007765e+00  9.922353e-01
 1.008735e+00  9.912645e-01
 1.009758e+00  9.902424e-01
 1.010830e+00  9.891701e-01
 1.011951e+00  9.880489e-01
 1.013120e+00  9.868804e-01
 1.014334e+00  9.856660e-01
 1.015593e+00  9.844071e-01
 1.016895e+00  9.831053e-01
 1.018238e+00  9.817623e-01
 1.019620e+00  9.803797e-01
 1.021041e+00  9.789593e-01
 1.022497e+00  9.775028e-01
 1.023988e+00  9.760120e-01
 1.025511e+00  9.744888e-01
 1.027065e+00  9.729351e-01
 1.028647e+00  9.713528e-01
 1.030256e+00  9.697439e-01
 1.031890e+00  9.681105e-01
 1.033546e+00  9.664544e-01
 1.035222e+00  9.647779e-01
 1.036917e+00  9.630830e-01
 1.038628e+00  9.613717e-01
 1.040354e+00  9.596463e-01
 1.042091e+00  9.579089e-01
 1.043838e+00  9.561616e-01
 1.045593e+00  9.544066e-01
 1.047354e+00  9.526462e-01
 1.049118e+00  9.508824e-01
 1.050882e+00  9.491176e-01
 1.052646e+00  9.473538e-01
 1.054407e+00  9.455934e-01
 1.056162e+00  9.438384e-01
 1.057909e+00  9.420911e-01
 1.059646e+00  9.403537e-01
 1.061372e+00  9.386283e-01
 1.063083e+00  9.369170e-01
 1.064778e+00  9.352221e-01
 1.066454e+00  9.335456e-01
 1.068110e+00  9.318895e-01
 1.069744e+00  9.302561e-01
 1.071353e+00  9.286472e-01
 1.072935e+00  9.270649e-01
 1.074489e+00  9.255112e-01
 1.076012e+00  9.239880e-01
 1.077503e+00  9.224972e-01
 1.078959e+00  9.210407e-01
 1.080380e+00  9.196203e-01
 1.081762e+00  9.182377e-01
 1.083105e+00  9.168947e-01
 1.084407e+00  9.155929e-01
 1.085666e+00  9.143340e-01
 1.086880e+00  9.131196e-01
 1.088049e+00  9.119511e-01
 1.089170e+00  9.108299e-01
 1.090242e+00  9.097576e-01
 1.091265e+00  9.087355e-01
 1.092235e+00  9.077647e-01
 1.093153e+00  9.068466e-01
 1.094018e+00  9.059822e-01
 1.094827e+00  9.051726e-01
 1.095581e+00  9.044189e-01
 1.096278e+00  9.037220e-01
 1.096917e+00  9.030828e-01
 1.097498e+00  9.025020e-01
 1.098020e+00  9.019804e-01
 1.098481e+00  9.015186e-01
 1.098883e+00  9.011172e-01
 1.099223e+00  9.007767e-01
 1.099502e+00  9.004976e-01
 1.099720e+00  9.002801e-01
 1.099875e+00  9.001245e-01
 1.099969e+00  9.000311e-01
 1.100000e+00  9.000000e-01
 1.000000e+00  1.000000e+00
 1.000031e+00  9.999689e-01
 1.000125e+00  9.998755e-01
 1.000280e+00  9.997199e-01
 1.000498e+00  9.995024e-01
 1.000777e+00  9.992233e-01
 1.001117e+00  9.988828e-01
 1.001519e+00  9.984814e-01
 1.001980e+00  9.980196e-01
 1.002502e+00  9.974980e-01
 1.003083e+00  9.969172e-01
 1.003722e+00  9.962780e-01
 1.004419e+00  9.955811e-01
 1.005173e+00  9.948274e-01
 1.005982e+00  9.940178e-01
 1.006847e+00  9.931534e-01
 1.007765e+00  9.922353e-01
 1.008735e+00  9.912645e-01
 1.009758e+00  9.902424e-01
 1.010830e+00  9.891701e-01
 1.011951e+00  9.880489e-01
 1.013120e+00  9.868804e-01
 1.014334e+00  9.856660e-01
 1.015593e+00  9.844071e-01
 1.016895e+00  9.831053e-01
 1.018238e+00  9.817623e-01
 1.019620e+00  9.803797e-01
 1.021041e+00  9.789593e-01
 1.022497e+00  9.775028e-01
 1.023988e+00  9.760120e-01
 1.025511e+00  9.744888e-01
 1.027065e+00  9.729351e-01
 1.028647e+00  9.713528e-01
 1.030256e+00  9.697439e-01
 1.031890e+00  9.681105e-01
 1.033546e+00  9.664544e-01
 1.035222e+00  9.647779e-01
 1.036917e+00  9.630830e-01
 1.038628e+00  9.613717e-01
 1.040354e+00  9.596463e-01
 1.042091e+00  9.579089e-01
 1.043838e+00  9.561616e-01
 1.045593e+00  9.544066e-01
 1.047354e+00  9.526462e-01
 1.049118e+00  9.508824e-01
 1.050882e+00  9.491176e-01
 1.052646e+00  9.473538e-01
 1.054407e+00  9.455934e-01
 1.056162e+00  9.438384e-01
 1.057909e+00  9.420911e-01
 1.059646e+00  9.403537e-01
 1.061372e+00  9.386283e-01
 1.063083e+00  9.369170e-01
 1.064778e+00  9.352221e-01
 1.066454e+00  9.335456e-01
 1.068110e+00  9.318895e-01
 1.069744e+00  9.302561e-01
 1.071353e+00  9.286472e-01
 1.072935e+00  9.270649e-01
 1.074489e+00  9.255112e-01
 1.076012e+00  9.239880e-01
 1.077503e+00  9.224972e-01
 1.078959e+00  9.210407e-01
 1.080380e+00  9.196203e-01
 1.081762e+00  9.182377e-01
 1.083105e+00  9.168947e-01
 1.084407e+00  9.155929e-01
 1.085666e+00  9.143340e-01
 1.086880e+00  9.131196e-01
 1.088049e+00  9.119511e-01
 1.089170e+00  9.108299e-01
 1.090242e+00  9.097576e-01
 1.091265e+00  9.087355e-01
 1.092235e+00  9.077647e-01
 1.093153e+00  9.068466e-01
 1.094018e+00  9.059822e-01
 1.094827e+00  9.051726e-01
 1.095581e+00  9.044189e-01
 1.096278e+00  9.037220e-01
 1.096917e+00  9.030828e-01
 1.097498e+00  9.025020e-01
 1.098020e+00  9.019804e-01
 1.098481e+00  9.015186e-01
 1.098883e+00  9.011172e-01
 1.099223e+00  9.007767e-01
 1.099502e+00  9.004976e-01
 1.099720e+00  9.002801e-01
 1.099875e+00  9.001245e-01
 1.099969e+00  9.000311e-01
 1.100000e+00  9.000000e-01
 1.000000e+00  1.000000e+00
 1.000031e+00  9.999689e-01
 1.000125e+00  9.998755e-01
 1.000280e+00  9.997199e-01
 1.000498e+00  9.995024e-01
 1.000777e+00  9.992233e-01
 1.001117e+00  9.988828e-01
 1.001519e+00  9.984814e-01
 1.001980e+00  9.980196e-01
 1.002502e+00  9.974980e-01
 1.003083e+00  9.969172e-01
 1.003722e+00  9.962780e-01
 1.004419e+00  9.955811e-01
 1.005173e+00  9.948274e-01
 1.005982e+00  9.940178e-01
 1.006847e+00  9.931534e-01
 1.007765e+00  9.922353e-01
 1.008735e+00  9.912645e-01
 1.009758e+00  9.902424e-01
 1.010830e+00  9.891701e-01
 1.011951e+00  9.880489e-01
 1.013120e+00  9.868804e-01
 1.014334e+00  9.856660e-01
 1.015593e+00  9.844071e-01
 1.016895e+00  9.831053e-01
 1.018238e+00  9.817623e-01
 1.019620e+00  9.803797e-01
 1.021041e+00  9.789593e-01
 1.022497e+00  9.775028e-01
 1.023988e+00  9.760120e-01
 1.025511e+00  9.744888e-01
 1.027065e+00  9.729351e-01
 1.028647e+00  9.713528e-01
 1.030256e+00  9.697439e-01
 1.031890e+00  9.681105e-01
 1.033546e+00  9.664544e-01
 1.035222e+00  9.647779e-01
 1.036917e+00  9.630830e-01
 1.038628e+00  9.613717e-01
 1.040354e+00  9.596463e-01
 1.042091e+00  9.579089e-01
 1.043838e+00  9.561616e-01
 1.045593e+00  9.544066e-01
 1.047354e+00  9.526462e-01
 1.049118e+00  9.508824e-01
 1.050882e+00  9.491176e-01
 1.052646e+00  9.473538e-01
 1.054407e+00  9.455934e-01
 1.056162e+00  9.438384e-01
 1.057909e+00  9.420911e-01
 1.059646e+00  9.403537e-01
 1.061372e+00  9.386283e-01
 1.063083e+00  9.369170e-01
 1.064778e+00  9.352221e-01
 1.066454e+00  9.335456e-01
 1.068110e+00  9.318895e-01
 1.069744e+00  9.302561e-01
 1.071353e+00  9.286472e-01
 1.072935e+00  9.270649e-01
 1.074489e+00  9.255112e-01
 1.076012e+00  9.239880e-01
 1.077503e+00  9.224972e-01
 1.078959e+00  9.210407e-01
 1.080380e+00  9.196203e-01
 1.081762e+00  9.182377e-01
 1.083105e+00  9.168947e-01
 1.084407e+00  9.155929e-01
 1.085666e+00  9.143340e-01
 1.086880e+00  9.131196e-01
 1.088049e+00  9.119511e-01
 1.089170e+00  9.108299e-01
 1.090242e+00  9.097576e-01
 1.091265e+00  9.087355e-01
 1.092235e+00  9.077647e-01
 1.093153e+00  9.068466e-01
 1.094018e+00  9.059822e-01
 1.094827e+00  9.051726e-01
 1.095581e+00  9.044189e-01
 1.096278e+00  9.037220e-01
 1.096917e+00  9.030828e-01
 1.097498e+00  9.025020e-01
 1.098020e+00  9.019804e-01
 1.098481e+00  9.015186e-01
 1.098883e+00  9.011172e-01
 1.099223e+00  9.007767e-01
 1.099502e+00  9.004976e-01
 1.099720e+00  9.002801e-01
 1.099875e+00  9.001245e-01
 1.099969e+00  9.000311e-01
 1.100000e+00  9.000000e-01
 1.000000e+00  1.000000e+00
 1.000031e+00  9.999689e-01
 1.000125e+00  9.998755e-01
 1.000280e+00  9.997199e-01
 1.000498e+00  9.995024e-01
 1.000777e+00  9.992233e-01
 1.001117e+00  9.988828e-01
 1.001519e+00  9.984814e-01
 1.001980e+00  9.980196e-01
 1.002502e+00  9.974980e-01
 1.003083e+00  9.969172e-01
 1.003722e+00  9.962780e-01
 1.004419e+00  9.955811e-01
 1.005173e+00  9.948274e-01
 1.005982e+00  9.940178e-01
 1.006847e+00  9.931534e-01
 1.007765e+00  9.922353e-01
 1.008735e+00  9.912645e-01
 1.009758e+00  9.902424e-01
 1.010830e+00  9.891701e-01
 1.011951e+00  9.880489e-01
 1.013120e+00  9.868804e-01
 1.014334e+00  9.856660e-01
 1.015593e+00  9.844071e-01
 1.016895e+00  9.831053e-01
 1.018238e+00  9.817623e-01
 1.019620e+00  9.803797e-01
 1.021041e+00  9.789593e-01
 1.022497e+00  9.775028e-01
 1.023988e+00  9.760120e-01
 1.025511e+00  9.744888e-01
 1.027065e+00  9.729351e-01
 1.028647e+00  9.713528e-01
 1.030256e+00  9.697439e-01
 1.031890e+00  9.681105e-01
 1.033546e+00  9.664544e-01
 1.035222e+00  9.647779e-01
 1.036917e+00  9.630830e-01
 1.038628e+00  9.613717e-01
 1.040354e+00  9.596463e-01
 1.042091e+00  9.579089e-01
 1.043838e+00  9.561616e-01
 1.045593e+00  9.544066e-01
 1.047354e+00  9.526462e-01
 1.049118e+00  9.508824e-01
 1.050882e+00  9.491176e-01
 1.052646e+00  9.473538e-01
 1.054407e+00  9.455934e-01
 1.056162e+00  9.438384e-01
 1.057909e+00  9.420911e-01
 1.059646e+00  9.403537e-01
 1.061372e+00  9.386283e-01
 1.063083e+00  9.369170e-01
 1.064778e+00  9.352221e-01
 1.066454e+00  9.335456e-01
 1.068110e+00  9.318895e-01
 1.069744e+00  9.302561e-01
 1.071353e+00  9.286472e-01
 1.072935e+00  9.270649e-01
 1.074489e+00  9.255112e-01
 1.076012e+00  9.239880e-01
 1.077503e+00  9.224972e-01
 1.078959e+00  9.210407e-01
 1.080380e+00  9.196203e-01
 1.081762e+00  9.182377e-01
 1.083105e+00  9.168947e-01
 1.084407e+00  9.155929e-01
 1.085666e+00  9.143340e-01
 1.086880e+00  9.131196e-01
 1.088049e+00  9.119511e-01
 1.089170e+00  9.108299e-01
 1.090242e+00  9.097576e-01
 1.091265e+00  9.087355e-01
 1.092235e+00  9.077647e-01
 1.093153e+00  9.068466e-01
 1.094018e+00  9.059822e-01
 1.094827e+00  9.051726e-01
 1.095581e+00  9.044189e-01
 1.096278e+00  9.037220e-01
 1.096917e+00  9.030828e-01
 1.097498e+00  9.025020e-01
 1.098020e+00  9.019804e-01
 1.098481e+00  9.015186e-01
 1.098883e+00  9.011172e-01
 1.099223e+00  9.007767e-01
 1.099502e+00  9.004976e-01
 1.099720e+00  9.002801e-01
 1.099875e+00  9.001245e-01
 1.099969e+00  9.000311e-01
 1.100000e+00  9.000000e-01
 1.000000e+00  1.000000e+00
 1.000031e+00  9.999689e-01
 1.000125e+00  9.998755e-01
 1.000280e+00  9.997199e-01
 1.000498e+00  9.995024e-01
 1.000777e+00  9.992233e-01
 1.001117e+00  9.988828e-01
 1.001519e+00  9.984814e-01
 1.001980e+00  9.980196e-01
 1.002502e+00  9.974980e-01
 1.003083e+00  9.969172e-01
 1.003722e+00  9.962780e-01
 1.004419e+00  9.955811e-01
 1.005173e+00  9.948274e-01
 1.005982e+00  9.940178e-01
 1.006847e+00  9.931534e-01
 1.007765e+00  9.922353e-01
 1.008735e+00  9.912645e-01
 1.009758e+00  9.902424e-01
 1.010830e+00  9.891701e-01
 1.011951e+00  9.880489e-01
 1.013120e+00  9.868804e-01
 1.014334e+00  9.856660e-01
 1.015593e+00  9.844071e-01
 1.016895e+00  9.831053e-01
 1.018238e+00  9.817623e-01
 1.019620e+00  9.803797e-01
 1.021041e+00  9.789593e-01
 1.022497e+00  9.775028e-01
 1.023988e+00  9.760120e-01
 1.025511e+00  9.744888e-01
 1.027065e+00  9.729351e-01
 1.028647e+00  9.713528e-01
 1.030256e+00  9.697439e-01
 1.031890e+00  9.681105e-01
 1.033546e+00  9.664544e-01
 1.035222e+00  9.647779e-01
 1.036917e+00  9.630830e-01
 1.038628e+00  9.613717e-01
 1.040354e+00  9.596463e-01
 1.042091e+00  9.579089e-01
 1.043838e+00  9.561616e-01
 1.045593e+00  9.544066e-01
 1.047354e+00  9.526462e-01
 1.049118e+00  9.508824e-01
 1.050882e+00  9.491176e-01
 1.052646e+00  9.473538e-01
 1.054407e+00  9.455934e-01
 1.056162e+00  9.438384e-01
 1.057909e+00  9.420911e-01
 1.059646e+00  9.403537e-01
 1.061372e+00  9.386283e-01
 1.063083e+00  9.369170e-01
 1.064778e+00  9.352221e-01
 1.066454e+00  9.335456e-01
 1.068110e+00  9.318895e-01
 1.069744e+00  9.302561e-01
 1.071353e+00  9.286472e-01
 1.072935e+00  9.270649e-01
 1.074489e+00  9.255112e-01
 1.076012e+00  9.239880e-01
 1.077503e+00  9.224972e-01
 1.078959e+00  9.210407e-01
 1.080380e+00  9.196203e-01
 1.081762e+00  9.182377e-01
 1.083105e+00  9.168947e-01
 1.084407e+00  9.155929e-01
 1.085666e+00  9.143340e-01
 1.086880e+00  9.131196e-01
 1.088049e+00  9.119511e-01
 1.089170e+00  9.108299e-01
 1.090242e+00  9.097576e-01
 1.091265e+00  9.087355e-01
 1.092235e+00  9.077647e-01
 1.093153e+00  9.068466e-01
 1.094018e+00  9.059822e-01
 1.094827e+00  9.051726e-01
 1.095581e+00  9.044189e-01
 1.096278e+00  9.037220e-01
 1.096917e+00  9.030828e-01
 1.097498e+00  9.025020e-01
 1.098020e+00  9.019804e-01
 1.098481e+00  9.015186e-01
 1.098883e+00  9.011172e-01
 1.099223e+00  9.007767e-01
 1.099502e+00  9.004976e-01
 1.099720e+00  9.002801e-01
 1.099875e+00  9.001245e-01
 1.099969e+00  9.000311e-01
 1.100000e+00  9.000000e-01
 1.000000e+00  1.000000e+00
 1.000031e+00  9.999689e-01
 1.000125e+00  9.998755e-01
 1.000280e+00  9.997199e-01
 1.000498e+00  9.995024e-01
 1.000777e+00  9.992233e-01
 1.001117e+00  9.988828e-01
 1.001519e+00  9.984814e-01
 1.001980e+00  9.980196e-01
 1.002502e+00  9.974980e-01
 1.003083e+00  9.969172e-01
 1.003722e+00  9.962780e-01
 1.004419e+00  9.955811e-01
 1.005173e+00  9.948274e-01
 1.005982e+00  9.940178e-01
 1.006847e+00  9.931534e-01
 1.007765e+00  9.922353e-01
 1.008735e+00  9.912645e-01
 1.009758e+00  9.902424e-01
 1.010830e+00  9.891701e-01
 1.011951e+00  9.880489e-01
 1.013120e+00  9.868804e-01
 1.014334e+00  9.856660e-01
 1.015593e+00  9.844071e-01
 1.016895e+00  9.831053e-01
 1.018238e+00  9.817623e-01
 1.019620e+00  9.803797e-01
 1.021041e+00  9.789593e-01
 1.022497e+00  9.775028e-01
 1.023988e+00  9.760120e-01
 1.025511e+00  9.744888e-01
 1.027065e+00  9.729351e-01
 1.028647e+00  9.713528e-01
 1.030256e+00  9.697439e-01
 1.031890e+00  9.681105e-01
 1.033546e+00  9.664544e-01
 1.035222e+00  9.647779e-01
 1.036917e+00  9.630830e-01
 1.038628e+00  9.613717e-01
 1.040354e+00  9.596463e-01
 1.042091e+00  9.579089e-01
 1.043838e+00  9.561616e-01
 1.045593e+00  9.544066e-01
 1.047354e+00  9.526462e-01
 1.049118e+00  9.508824e-01
 1.050882e+00  9.491176e-01
 1.052646e+00  9.473538e-01
 1.054407e+00  9.455934e-01
 1.056162e+00  9.438384e-01
 1.057909e+00  9.420911e-01
 1.059646e+00  9.403537e-01
 1.061372e+00  9.386283e-01
 1.063083e+00  9.369170e-01
 1.064778e+00  9.352221e-01
 1.066454e+00  9.335456e-01
 1.068110e+00  9.318895e-01
 1.069744e+00  9.302561e-01
 1.071353e+00  9.286472e-01
 1.072935e+00  9.270649e-01
 1.074489e+00  9.255112e-01
 1.076012e+00  9.239880e-01
 1.077503e+00  9.224972e-01
 1.078959e+00  9.210407e-01
 1.080380e+00  9.196203e-01
 1.081762e+00  9.182377e-01
 1.083105e+00  9.168947e-01
 1.084407e+00  9.155929e-01
 1.085666e+00  9.143340e-01
 1.086880e+00  9.131196e-01
 1.088049e+00  9.119511e-01
 1.089170e+00  9.108299e-01
 1.090242e+00  9.097576e-01
 1.091265e+00  9.087355e-01
 1.092235e+00  9.077647e-01
 1.093153e+00  9.068466e-01
 1.094018e+00  9.059822e-01
 1.094827e+00  9.051726e-01
 1.095581e+00  9.044189e-01
 1.096278e+00  9.037220e-01
 1.096917e+00  9.030828e-01
 1.097498e+00  9.025020e-01
 1.098020e+00  9.019804e-01
 1.098481e+00  9.015186e-01
 1.098883e+00  9.011172e-01
 1.099223e+00  9.007767e-01
 1.099502e+00  9.004976e-01
 1.099720e+00  9.002801e-01
 1.099875e+00  9.001245e-01
 1.099969e+00  9.000311e-01
 1.100000e+00  9.000000e-01
 1.000000e+00  1.000000e+00
 1.000031e+00  9.999689e-01
 1.000125e+00  9.998755e-01
 1.000280e+00  9.997199e-01
 1.000498e+00  9.995024e-01
 1.000777e+00  9.992233e-01
 1.001117e+00  9.988828e-01
 1.001519e+00  9.984814e-01
 1.001980e+00  9.980196e-01
 1.002502e+00  9.974980e-01
 1.003083e+00  9.969172e-01
 1.003722e+00  9.962780e-01
 1.004419e+00  9.955811e-01
 1.005173e+00  9.948274e-01
 1.005982e+00  9.940178e-01
 1.006847e+00  9.931534e-01
 1.007765e+00  9.922353e-01
 1.008735e+00  9.912645e-01
 1.009758e+00  9.902424e-01
 1.010830e+00  9.891701e-01
 1.011951e+00  9.880489e-01
 1.013120e+00  9.868804e-01
 1.014334e+00  9.856660e-01
 1.015593e+00  9.844071e-01
 1.016895e+00  9.831053e-01
 1.018238e+00  9.817623e-01
 1.019620e+00  9.803797e-01
 1.021041e+00  9.789593e-01
 1.022497e+00  9.775028e-01
 1.023988e+00  9.760120e-01
 1.025511e+00  9.744888e-01
 1.027065e+00  9.729351e-01
 1.028647e+00  9.713528e-01
 1.030256e+00  9.697439e-01
 1.031890e+00  9.681105e-01
 1.033546e+00  9.664544e-01
 1.035222e+00  9.647779e-01
 1.036917e+00  9.630830e-01
 1.038628e+00  9.613717e-01
 1.040354e+00  9.596463e-01
 1.042091e+00  9.579089e-01
 1.043838e+00  9.561616e-01
 1.045593e+00  9.544066e-01
 1.047354e+00  9.526462e-01
 1.049118e+00  9.508824e-01
 1.050882e+00  9.491176e-01
 1.052646e+00  9.473538e-01
 1.054407e+00  9.455934e-01
 1.056162e+00  9.438384e-01
 1.057909e+00  9.420911e-01
 1.059646e+00  9.403537e-01
 1.061372e+00  9.386283e-01
 1.063083e+00  9.369170e-01
 1.064778e+00  9.352221e-01
 1.066454e+00  9.335456e-01
 1.068110e+00  9.318895e-01
 1.069744e+00  9.302561e-01
 1.071353e+00  9.286472e-01
 1.072935e+00  9.270649e-01
 1.074489e+00  9.255112e-01
 1.076012e+00  9.239880e-01
 1.077503e+00  9.224972e-01
 1.078959e+00  9.210407e-01
 1.080380e+00  9.196203e-01
 1.081762e+00  9.182377e-01
 1.083105e+00  9.168947e-01
 1.084407e+00  9.155929e-01
 1.085666e+00  9.143340e-01
 1.086880e+00  9.131196e-01
 1.088049e+00  9.119511e-01
 1.089170e+00  9.108299e-01
 1.090242e+00  9.097576e-01
 1.091265e+00  9.087355e-01
 1.092235e+00  9.077647e-01
 1.093153e+00  9.068466e-01
 1.094018e+00  9.059822e-01
 1.094827e+00  9.051726e-01
 1.095581e+00  9.044189e-01
 1.096278e+00  9.037220e-01
 1.096917e+00  9.030828e-01
 1.097498e+00  9.025020e-01
 1.098020e+00  9.019804e-01
 1.098481e+00  9.015186e-01
 1.098883e+00  9.011172e-01
 1.099223e+00  9.007767e-01
 1.099502e+00  9.004976e-01
 1.099720e+00  9.002801e-01
 1.099875e+00  9.001245e-01
 1.099969e+00  9.000311e-01
 1.100000e+00  9.000000e-01
 1.000000e+00  1.000000e+00
 1.000031e+00  9.999689e-01
 1.000125e+00  9.998755e-01
 1.000280e+00  9.997199e-01
 1.000498e+00  9.995024e-01
 1.000777e+00  9.992233e-01
 1.001117e+00  9.988828e-01
 1.001519e+00  9.984814e-01
 1.001980e+00  9.980196e-01
 1.002502e+00  9.974980e-01
 1.003083e+00  9.969172e-01
 1.003722e+00  9.962780e-01
 1.004419e+00  9.955811e-01
 1.005173e+00  9.948274e-01
 1.005982e+00  9.940178e-01
 1.006847e+00  9.931534e-01
 1.007765e+00  9.922353e-01
 1.008735e+00  9.912645e-01
 1.009758e+00  9.902424e-01
 1.010830e+00  9.891701e-01
 1.011951e+00  9.880489e-01
 1.013120e+00  9.868804e-01
 1.014334e+00  9.856660e-01
 1.015593e+00  9.844071e-01
 1.016895e+00  9.831053e-01
 1.018238e+00  9.817623e-01
 1.019620e+00  9.803797e-01
 1.021041e+00  9.789593e-01
 1.022497e+00  9.775028e-01
 1.023988e+00  9.760120e-01
 1.025511e+00  9.744888e-01
 1.027065e+00  9.729351e-01
 1.028647e+00  9.713528e-01
 1.030256e+00  9.697439e-01
 1.031890e+00  9.681105e-01
 1.033546e+00  9.664544e-01
 1.035222e+00  9.647779e-01
 1.036917e+00  9.630830e-01
 1.038628e+00  9.613717e-01
 1.040354e+00  9.596463e-01
 1.042091e+00  9.579089e-01
 1.043838e+00  9.561616e-01
 1.045593e+00  9.544066e-01
 1.047354e+00  9.526462e-01
 1.049118e+00  9.508824e-01
 1.050882e+00  9.491176e-01
 1.052646e+00  9.473538e-01
 1.054407e+00  9.455934e-01
 1.056162e+00  9.438384e-01
 1.057909e+00  9.420911e-01
 1.059646e+00  9.403537e-01
 1.061372e+00  9.386283e-01
 1.063083e+00  9.369170e-01
 1.064778e+00  9.352221e-01
 1.066454e+00  9.335456e-01
 1.068110e+00  9.318895e-01
 1.069744e+00  9.302561e-01
 1.071353e+00  9.286472e-01
 1.072935e+00  9.270649e-01
 1.074489e+00  9.255112e-01
 1.076012e+00  9.239880e-01
 1.077503e+00  9.224972e-01
 1.078959e+00  9.210407e-01
 1.080380e+00  9.196203e-01
 1.081762e+00  9.182377e-01
 1.083105e+00  9.168947e-01
 1.084407e+00  9.155929e-01
 1.085666e+00  9.143340e-01
 1.086880e+00  9.131196e-01
 1.088049e+00  9.119511e-01
 1.089170e+00  9.108299e-01
 1.090242e+00  9.097576e-01
 1.091265e+00  9.087355e-01
 1.092235e+00  9.077647e-01
 1.093153e+00  9.068466e-01
 1.094018e+00  9.059822e-01
 1.094827e+00  9.051726e-01
 1.095581e+00  9.044189e-01
 1.096278e+00  9.037220e-01
 1.096917e+00  9.030828e-01
 1.097498e+00  9.025020e-01
 1.098020e+00  9.019804e-01
 1.098481e+00  9.015186e-01
 1.098883e+00  9.011172e-01
 1.099223e+00  9.007767e-01
 1.099502e+00  9.004976e-01
 1.099720e+00  9.002801e-01
 1.099875e+00  9.001245e-01
 1.099969e+00  9.000311e-01
 1.100000e+00  9.000000e-01
 1.000000e+00  1.000000e+00
 1.000031e+00  9.999689e-01
 1.000125e+00  9.998755e-01
 1.000280e+00  9.997199e-01
 1.000498e+00  9.995024e-01
 1.000777e+00  9.992233e-01
 1.001117e+00  9.988828e-01
 1.001519e+00  9.984814e-01
 1.001980e+00  9.980196e-01
 1.002502e+00  9.974980e-01
 1.003083e+00  9.969172e-01
 1.003722e+00  9.962780e-01
 1.004419e+00  9.955811e-01
 1.005173e+00  9.948274e-01
 1.005982e+00  9.940178e-01
 1.006847e+00  9.931534e-01
 1.007765e+00  9.922353e-01
 1.008735e+00  9.912645e-01
 1.009758e+00  9.902424e-01
 1.010830e+00  9.891701e-01
 1.011951e+00  9.880489e-01
 1.013120e+00  9.868804e-01
 1.014334e+00  9.856660e-01
 1.015593e+00  9.844071e-01
 1.016895e+00  9.831053e-01
 1.018238e+00  9.817623e-01
 1.019620e+00  9.803797e-01
 1.021041e+00  9.789593e-01
 1.022497e+00  9.775028e-01
 1.023988e+00  9.760120e-01
 1.025511e+00  9.744888e-01
 1.027065e+00  9.729351e-01
 1.028647e+00  9.713528e-01
 1.030256e+00  9.697439e-01
 1.031890e+00  9.681105e-01
 1.033546e+00  9.664544e-01
 1.035222e+00  9.647779e-01
 1.036917e+00  9.630830e-01
 1.038628e+00  9.613717e-01
 1.040354e+00  9.596463e-01
 1.042091e+00  9.579089e-01
 1.043838e+00  9.561616e-01
 1.045593e+00  9.544066e-01
 1.047354e+00  9.526462e-01
 1.049118e+00  9.508824e-01
 1.050882e+00  9.491176e-01
 1.052646e+00  9.473538e-01
 1.054407e+00  9.455934e-01
 1.056162e+00  9.438384e-01
 1.057909e+00  9.420911e-01
 1.059646e+00  9.403537e-01
 1.061372e+00  9.386283e-01
 1.063083e+00  9.369170e-01
 1.064778e+00  9.352221e-01
 1.066454e+00  9.335456e-01
 1.068110e+00  9.318895e-01
 1.069744e+00  9.302561e-01
 1.071353e+00  9.286472e-01
 1.072935e+00  9.270649e-01
 1.074489e+00  9.255112e-01
 1.076012e+00  9.239880e-01
 1.077503e+00  9.224972e-01
 1.078959e+00  9.210407e-01
 1.080380e+00  9.196203e-01
 1.081762e+00  9.182377e-01
 1.083105e+00  9.168947e-01
 1.084407e+00  9.155929e-01
 1.085666e+00  9.143340e-01
 1.086880e+00  9.131196e-01
 1.088049e+00  9.119511e-01
 1.089170e+00  9.108299e-01
 1.090242e+00  9.097576e-01
 1.091265e+00  9.087355e-01
 1.092235e+00  9.077647e-01
 1.093153e+00  9.068466e-01
 1.094018e+00  9.059822e-01
 1.094827e+00  9.051726e-01
 1.095581e+00  9.044189e-01
 1.096278e+00  9.037220e-01
 1.096917e+00  9.030828e-01
 1.097498e+00  9.025020e-01
 1.098020e+00  9.019804e-01
 1.098481e+00  9.015186e-01
 1.098883e+00  9.011172e-01
 1.099223e+00  9.007767e-01
 1.099502e+00  9.004976e-01
 1.099720e+00  9.002801e-01
 1.099875e+00  9.001245e-01
 1.099969e+00  9.000311e-01
 1.100000e+00  9.000000e-01
 1.000000e+00  1.000000e+00
 1.000031e+00  9.999689e-01
 1.000125e+00  9.998755e-01
 1.000280e+00  9.997199e-01
 1.000498e+00  9.995024e-01
 1.000777e+00  9.992233e-01
 1.001117e+00  9.988828e-01
 1.001519e+00  9.984814e-01
 1.001980e+00  9.980196e-01
 1.002502e+00  9.974980e-01
 1.003083e+00  9.969172e-01
 1.003722e+00  9.962780e-01
 1.004419e+00  9.955811e-01
 1.005173e+00  9.948274e-01
 1.005982e+00  9.940178e-01
 1.006847e+00  9.931534e-01
 1.007765e+00  9.922353e-01
 1.008735e+00  9.912645e-01
 1.009758e+00  9.902424e-01
 1.010830e+00  9.891701e-01
 1.011951e+00  9.880489e-01
 1.013120e+00  9.868804e-01
 1.014334e+00  9.856660e-01
 1.015593e+00  9.844071e-01
 1.016895e+00  9.831053e-01
 1.018238e+00  9.817623e-01
 1.019620e+00  9.803797e-01
 1.021041e+00  9.789593e-01
 1.022497e+00  9.775028e-01
 1.023988e+00  9.760120e-01
 1.025511e+00  9.744888e-01
 1.027065e+00  9.729351e-01
 1.028647e+00  9.713528e-01
 1.030256e+00  9.697439e-01
 1.031890e+00  9.681105e-01
 1.033546e+00  9.664544e-01
 1.035222e+00  9.647779e-01
 1.036917e+00  9.630830e-01
 1.038628e+00  9.613717e-01
 1.040354e+00  9.596463e-01
 1.042091e+00  9.579089e-01
 1.043838e+00  9.561616e-01
 1.045593e+00  9.544066e-01
 1.047354e+00  9.526462e-01
 1.049118e+00  9.508824e-01
 1.050882e+00  9.491176e-01
 1.052646e+00  9.473538e-01
 1.054407e+00  9.455934e-01
 1.056162e+00  9.438384e-01
 1.057909e+00  9.420911e-01
 1.059646e+00  9.403537e-01
 1.061372e+00  9.386283e-01
 1.063083e+00  9.369170e-01
 1.064778e+00  9.352221e-01
 1.066454e+00  9.335456e-01
 1.068110e+00  9.318895e-01
 1.069744e+00  9.302561e-01
 1.071353e+00  9.286472e-01
 1.072935e+00  9.270649e-01
 1.074489e+00  9.255112e-01
 1.076012e+00  9.239880e-01
 1.077503e+00  9.224972e-01
 1.078959e+00  9.210407e-01
 1.080380e+00  9.196203e-01
 1.081762e+00  9.182377e-01
 1.083105e+00  9.168947e-01
 1.084407e+00  9.155929e-01
 1.085666e+00  9.143340e-01
 1.086880e+00  9.131196e-01
 1.088049e+00  9.119511e-01
 1.089170e+00  9.108299e-01
 1.090242e+00  9.097576e-01
 1.091265e+00  9.087355e-01
 1.092235e+00  9.077647e-01
 1.093153e+00  9.068466e-01
 1.094018e+00  9.059822e-01
 1.094827e+00  9.051726e-01
 1.095581e+00  9.044189e-01
 1.096278e+00  9.037220e-01
 1.096917e+00  9.030828e-01
 1.097498e+00  9.025020e-01
 1.098020e+00  9.019804e-01
 1.098481e+00  9.015186e-01
 1.098883e+00  9.011172e-01
 1.099223e+00  9.007767e-01
 1.099502e+00  9.004976e-01
 1.099720e+00  9.002801e-01
 1.099875e+00  9.001245e-01
 1.099969e+00  9.000311e-01
 1.100000e+00  9.000000e-01
 1.000000e+00  1.000000e+00
 1.000031e+00  9.999689e-01
 1.000125e+00  9.998755e-01
 1.000280e+00  9.997199e-01
 1.000498e+00  9.995024e-01
 1.000777e+00  9.992233e-01
 1.001117e+00  9.988828e-01
 1.001519e+00  9.984814e-01
 1.001980e+00  9.980196e-01
 1.002502e+00  9.974980e-01
 1.003083e+00  9.969172e-01
 1.003722e+00  9.962780e-01
 1.004419e+00  9.955811e-01
 1.005173e+00  9.948274e-01
 1.005982e+00  9.940178e-01
 1.006847e+00  9.931534e-01
 1.007765e+00  9.922353e-01
 1.008735e+00  9.912645e-01
 1.009758e+00  9.902424e-01
 1.010830e+00  9.891701e-01
 1.011951e+00  9.880489e-01
 1.013120e+00  9.868804e-01
 1.014334e+00  9.856660e-01
 1.015593e+00  9.844071e-01
 1.016895e+00  9.831053e-01
 1.018238e+00  9.817623e-01
 1.019620e+00  9.803797e-01
 1.021041e+00  9.789593e-01
 1.022497e+00  9.775028e-01
 1.023988e+00  9.760120e-01
 1.025511e+00  9.744888e-01
 1.027065e+00  9.729351e-01
 1.028647e+00  9.713528e-01
 1.030256e+00  9.697439e-01
 1.031890e+00  9.681105e-01
 1.033546e+00  9.664544e-01
 1.035222e+00  9.647779e-01
 1.036917e+00  9.630830e-01
 1.038628e+00  9.613717e-01
 1.040354e+00  9.596463e-01
 1.042091e+00  9.579089e-01
 1.043838e+00  9.561616e-01
 1.045593e+00  9.544066e-01
 1.047354e+00  9.526462e-01
 1.049118e+00  9.508824e-01
 1.050882e+00  9.491176e-01
 1.052646e+00  9.473538e-01
 1.054407e+00  9.455934e-01
 1.056162e+00  9.438384e-01
 1.057909e+00  9.420911e-01
 1.059646e+00  9.403537e-01
 1.061372e+00  9.386283e-01
 1.063083e+00  9.369170e-01
 1.064778e+00  9.352221e-01
 1.066454e+00  9.335456e-01
 1.068110e+00  9.318895e-01
 1.069744e+00  9.302561e-01
 1.071353e+00  9.286472e-01
 1.072935e+00  9.270649e-01
 1.074489e+00  9.255112e-01
 1.076012e+00  9.239880e-01
 1.077503e+00  9.224972e-01
 1.078959e+00  9.210407e-01
 1.080380e+00  9.196203e-01
 1.081762e+00  9.182377e-01
 1.083105e+00  9.168947e-01
 1.084407e+00  9.155929e-01
 1.085666e+00  9.143340e-01
 1.086880e+00  9.131196e-01
 1.088049e+00  9.119511e-01
 1.089170e+00  9.108299e-01
 1.090242e+00  9.097576e-01
 1.091265e+00  9.087355e-01
 1.092235e+00  9.077647e-01
 1.093153e+00  9.068466e-01
 1.094018e+00  9.059822e-01
 1.094827e+00  9.051726e-01
 1.095581e+00  9.044189e-01
 1.096278e+00  9.037220e-01
 1.096917e+00  9.030828e-01
 1.097498e+00  9.025020e-01
 1.098020e+00  9.019804e-01
 1.098481e+00  9.015186e-01
 1.098883e+00  9.011172e-01
 1.099223e+00  9.007767e-01
 1.099502e+00  9.004976e-01
 1.099720e+00  9.002801e-01
 1.099875e+00  9.001245e-01
 1.099969e+00  9.000311e-01
 1.100000e+00  9.000000e-01
 1.000000e+00  1.000000e+00
 1.000031e+00  9.999689e-01
 1.000125e+00  9.998755e-01
 1.000280e+00  9.997199e-01
 1.000498e+00  9.995024e-01
 1.000777e+00  9.992233e-01
 1.001117e+00  9.988828e-01
 1.001519e+00  9.984814e-01
 1.001980e+00  9.980196e-01
 1.002502e+00  9.974980e-01
 1.003083e+00  9.969172e-01
 1.003722e+00  9.962780e-01
 1.004419e+00  9.955811e-01
 1.005173e+00  9.948274e-01
 1.005982e+00  9.940178e-01
 1.006847e+00  9.931534e-01
 1.007765e+00  9.922353e-01
 1.008735e+00  9.912645e-01
 1.009758e+00  9.902424e-01
 1.010830e+00  9.891701e-01
 1.011951e+00  9.880489e-01
 1.013120e+00  9.868804e-01
 1.014334e+00  9.856660e-01
 1.015593e+00  9.844071e-01
 1.016895e+00  9.831053e-01
 1.018238e+00  9.817623e-01
 1.019620e+00  9.803797e-01
 1.021041e+00  9.789593e-01
 1.022497e+00  9.775028e-01
 1.023988e+00  9.760120e-01
 1.025511e+00  9.744888e-01
 1.027065e+00  9.729351e-01
 1.028647e+00  9.713528e-01
 1.030256e+00  9.697439e-01
 1.031890e+00  9.681105e-01
 1.033546e+00  9.664544e-01
 1.035222e+00  9.647779e-01
 1.036917e+00  9.630830e-01
 1.038628e+00  9.613717e-01
 1.040354e+00  9.596463e-01
 1.042091e+00  9.579089e-01
 1.043838e+00  9.561616e-01
 1.045593e+00  9.544066e-01
 1.047354e+00  9.526462e-01
 1.049118e+00  9.508824e-01
 1.050882e+00  9.491176e-01
 1.052646e+00  9.473538e-01
 1.054407e+00  9.455934e-01
 1.056162e+00  9.438384e-01
 1.057909e+00  9.420911e-01
 1.059646e+00  9.403537e-01
 1.061372e+00  9.386283e-01
 1.063083e+00  9.369170e-01
 1.064778e+00  9.352221e-01
 1.066454e+00  9.335456e-01
 1.068110e+00  9.318895e-01
 1.069744e+00  9.302561e-01
 1.071353e+00  9.286472e-01
 1.072935e+00  9.270649e-01
 1.074489e+00  9.255112e-01
 1.076012e+00  9.239880e-01
 1.077503e+00  9.224972e-01
 1.078959e+00  9.210407e-01
 1.080380e+00  9.196203e-01
 1.081762e+00  9.182377e-01
 1.083105e+00  9.168947e-01
 1.084407e+00  9.155929e-01
 1.085666e+00  9.143340e-01
 1.086880e+00  9.131196e-01
 1.088049e+00  9.119511e-01
 1.089170e+00  9.108299e-01
 1.090242e+00  9.097576e-01
 1.091265e+00  9.087355e-01
 1.092235e+00  9.077647e-01
 1.093153e+00  9.068466e-01
 1.094018e+00  9.059822e-01
 1.094827e+00  9.051726e-01
 1.095581e+00  9.044189e-01
 1.096278e+00  9.037220e-01
 1.096917e+00  9.030828e-01
 1.097498e+00  9.025020e-01
 1.098020e+00  9.019804e-01
 1.098481e+00  9.015186e-01
 1.098883e+00  9.011172e-01
 1.099223e+00  9.007767e-01
 1.099502e+00  9.004976e-01
 1.099720e+00  9.002801e-01
 1.099875e+00  9.001245e-01
 1.099969e+00  9.000311e-01
 1.100000e+00  9.000000e-01
 1.000000e+00  1.000000e+00
 1.000031e+00  9.999689e-01
 1.000125e+00  9.998755e-01
 1.000280e+00  9.997199e-01
 1.000498e+00  9.995024e-01
 1.000777e+00  9.992233e-01
 1.001117e+00  9.988828e-01
 1.001519e+00  9.984814e-01
 1.001980e+00  9.980196e-01
 1.002502e+00  9.974980e-01
 1.003083e+00  9.969172e-01
 1.003722e+00  9.962780e-01
 1.004419e+00  9.955811e-01
 1.005173e+00  9.948274e-01
 1.005982e+00  9.940178e-01
 1.006847e+00  9.931534e-01
 1.007765e+00  9.922353e-01
 1.008735e+00  9.912645e-01
 1.009758e+00  9.902424e-01
 1.010830e+00  9.891701e-01
 1.011951e+00  9.880489e-01
 1.013120e+00  9.868804e-01
 1.014334e+00  9.856660e-01
 1.015593e+00  9.844071e-01
 1.016895e+00  9.831053e-01
 1.018238e+00  9.817623e-01
 1.019620e+00  9.803797e-01
 1.021041e+00  9.789593e-01
 1.022497e+00  9.775028e-01
 1.023988e+00  9.760120e-01
 1.025511e+00  9.744888e-01
 1.027065e+00  9.729351e-01
 1.028647e+00  9.713528e-01
 1.030256e+00  9.697439e-01
 1.031890e+00  9.681105e-01
 1.033546e+00  9.664544e-01
 1.035222e+00  9.647779e-01
 1.036917e+00  9.630830e-01
 1.038628e+00  9.613717e-01
 1.040354e+00  9.596463e-01
 1.042091e+00  9.579089e-01
 1.043838e+00  9.561616e-01
 1.045593e+00  9.544066e-01
 1.047354e+00  9.526462e-01
 1.049118e+00  9.508824e-01
 1.050882e+00  9.491176e-01
 1.052646e+00  9.473538e-01
 1.054407e+00  9.455934e-01
 1.056162e+00  9.438384e-01
 1.057909e+00  9.420911e-01
 1.059646e+00  9.403537e-01
 1.061372e+00  9.386283e-01
 1.063083e+00  9.369170e-01
 1.064778e+00  9.352221e-01
 1.066454e+00  9.335456e-01
 1.068110e+00  9.318895e-01
 1.069744e+00  9.302561e-01
 1.071353e+00  9.286472e-01
 1.072935e+00  9.270649e-01
 1.074489e+00  9.255112e-01
 1.076012e+00  9.239880e-01
 1.077503e+00  9.224972e-01
 1.078959e+00  9.210407e-01
 1.080380e+00  9.196203e-01
 1.081762e+00  9.182377e-01
 1.083105e+00  9.168947e-01
 1.084407e+00  9.155929e-01
 1.085666e+00  9.143340e-01
 1.086880e+00  9.131196e-01
 1.088049e+00  9.119511e-01
 1.089170e+00  9.108299e-01
 1.090242e+00  9.097576e-01
 1.091265e+00  9.087355e-01
 1.092235e+00  9.077647e-01
 1.093153e+00  9.068466e-01
 1.094018e+00  9.059822e-01
 1.094827e+00  9.051726e-01
 1.095581e+00  9.044189e-01
 1.096278e+00  9.037220e-01
 1.096917e+00  9.030828e-01
 1.097498e+00  9.025020e-01
 1.098020e+00  9.019804e-01
 1.098481e+00  9.015186e-01
 1.098883e+00  9.011172e-01
 1.099223e+00  9.007767e-01
 1.099502e+00  9.004976e-01
 1.099720e+00  9.002801e-01
 1.099875e+00  9.001245e-01
 1.099969e+00  9.000311e-01
 1.100000e+00  9.000000e-01
 1.000000e+00  1.000000e+00
 1.000031e+00  9.999689e-01
 1.000125e+00  9.998755e-01
 1.000280e+00  9.997199e-01
 1.000498e+00  9.995024e-01
 1.000777e+00  9.992233e-01
 1.001117e+00  9.988828e-01
 1.001519e+00  9.984814e-01
 1.001980e+00  9.980196e-01
 1.002502e+00  9.974980e-01
 1.003083e+00  9.969172e-01
 1.003722e+00  9.962780e-01
 1.004419e+00  9.955811e-01
 1.005173e+00  9.948274e-01
 1.005982e+00  9.940178e-01
 1.006847e+00  9.931534e-01
 1.007765e+00  9.922353e-01
 1.008735e+00  9.912645e-01
 1.009758e+00  9.902424e-01
 1.010830e+00  9.891701e-01
 1.011951e+00  9.880489e-01
 1.013120e+00  9.868804e-01
 1.014334e+00  9.856660e-01
 1.015593e+00  9.844071e-01
 1.016895e+00  9.831053e-01
 1.018238e+00  9.817623e-01
 1.019620e+00  9.803797e-01
 1.021041e+00  9.789593e-01
 1.022497e+00  9.775028e-01
 1.023988e+00  9.760120e-01
 1.025511e+00  9.744888e-01
 1.027065e+00  9.729351e-01
 1.028647e+00  9.713528e-01
 1.030256e+00  9.697439e-01
 1.031890e+00  9.681105e-01
 1.033546e+00  9.664544e-01
 1.035222e+00  9.647779e-01
 1.036917e+00  9.630830e-01
 1.038628e+00  9.613717e-01
 1.040354e+00  9.596463e-01
 1.042091e+00  9.579089e-01
 1.043838e+00  9.561616e-01
 1.045593e+00  9.544066e-01
 1.047354e+00  9.526462e-01
 1.049118e+00  9.508824e-01
 1.050882e+00  9.491176e-01
 1.052646e+00  9.473538e-01
 1.054407e+00  9.455934e-01
 1.056162e+00  9.438384e-01
 1.057909e+00  9.420911e-01
 1.059646e+00  9.403537e-01
 1.061372e+00  9.386283e-01
 1.063083e+00  9.369170e-01
 1.064778e+00  9.352221e-01
 1.066454e+00  9.335456e-01
 1.068110e+00  9.318895e-01
 1.069744e+00  9.302561e-01
 1.071353e+00  9.286472e-01
 1.072935e+00  9.270649e-01
 1.074489e+00  9.255112e-01
 1.076012e+00  9.239880e-01
 1.077503e+00  9.224972e-01
 1.078959e+00  9.210407e-01
 1.080380e+00  9.196203e-01
 1.081762e+00  9.182377e-01
 1.083105e+00  9.168947e-01
 1.084407e+00  9.155929e-01
 1.085666e+00  9.143340e-01
 1.086880e+00  9.131196e-01
 1.088049e+00  9.119511e-01
 1.089170e+00  9.108299e-01
 1.090242e+00  9.097576e-01
 1.091265e+00  9.087355e-01
 1.092235e+00  9.077647e-01
 1.093153e+00  9.068466e-01
 1.094018e+00  9.059822e-01
 1.094827e+00  9.051726e-01
 1.095581e+00  9.044189e-01
 1.096278e+00  9.037220e-01
 1.096917e+00  9.030828e-01
 1.097498e+00  9.025020e-01
 1.098020e+00  9.019804e-01
 1.098481e+00  9.015186e-01
 1.098883e+00  9.011172e-01
 1.099223e+00  9.007767e-01
 1.099502e+00  9.004976e-01
 1.099720e+00  9.002801e-01
 1.099875e+00  9.001245e-01
 1.099969e+00  9.000311e-01
 1.100000e+00  9.000000e-01
 1.000000e+00  1.000000e+00
 1.000031e+00  9.999689e-01
 1.000125e+00  9.998755e-01
 1.000280e+00  9.997199e-01
 1.000498e+00  9.995024e-01
 1.000777e+00  9.992233e-01
 1.001117e+00  9.988828e-01
 1.001519e+00  9.984814e-01
 1.001980e+00  9.980196e-01
 1.002502e+00  9.974980e-01
 1.003083e+00  9.969172e-01
 1.003722e+00  9.962780e-01
 1.004419e+00  9.955811e-01
 1.005173e+00  9.948274e-01
 1.005982e+00  9.940178e-01
 1.006847e+00  9.931534e-01
 1.007765e+00  9.922353e-01
 1.008735e+00  9.912645e-01
 1.009758e+00  9.902424e-01
 1.010830e+00  9.891701e-01
 1.011951e+00  9.880489e-01
 1.013120e+00  9.868804e-01
 1.014334e+00  9.856660e-01
 1.015593e+00  9.844071e-01
 1.016895e+00  9.831053e-01
 1.018238e+00  9.817623e-01
 1.019620e+00  9.803797e-01
 1.021041e+00  9.789593e-01
 1.022497e+00  9.775028e-01
 1.023988e+00  9.760120e-01
 1.025511e+00  9.744888e-01
 1.027065e+00  9.729351e-01
 1.028647e+00  9.713528e-01
 1.030256e+00  9.697439e-01
 1.031890e+00  9.681105e-01
 1.033546e+00  9.664544e-01
 1.035222e+00  9.647779e-01
 1.036917e+00  9.630830e-01
 1.038628e+00  9.613717e-01
 1.040354e+00  9.596463e-01
 1.042091e+00  9.579089e-01
 1.043838e+00  9.561616e-01
 1.045593e+00  9.544066e-01
 1.047354e+00  9.526462e-01
 1.049118e+00  9.508824e-01
 1.050882e+00  9.491176e-01
 1.052646e+00  9.473538e-01
 1.054407e+00  9.455934e-01
 1.056162e+00  9.438384e-01
 1.057909e+00  9.420911e-01
 1.059646e+00  9.403537e-01
 1.061372e+00  9.386283e-01
 1.063083e+00  9.369170e-01
 1.064778e+00  9.352221e-01
 1.066454e+00  9.335456e-01
 1.068110e+00  9.318895e-01
 1.069744e+00  9.302561e-01
 1.071353e+00  9.286472e-01
 1.072935e+00  9.270649e-01
 1.074489e+00  9.255112e-01
 1.076012e+00  9.239880e-01
 1.077503e+00  9.224972e-01
 1.078959e+00  9.210407e-01
 1.080380e+00  9.196203e-01
 1.081762e+00  9.182377e-01
 1.083105e+00  9.168947e-01
 1.084407e+00  9.155929e-01
 1.085666e+00  9.143340e-01
 1.086880e+00  9.131196e-01
 1.088049e+00  9.119511e-01
 1.089170e+00  9.108299e-01
 1.090242e+00  9.097576e-01
 1.091265e+00  9.087355e-01
 1.092235e+00  9.077647e-01
 1.093153e+00  9.068466e-01
 1.094018e+00  9.059822e-01
 1.094827e+00  9.051726e-01
 1.095581e+00  9.044189e-01
 1.096278e+00  9.037220e-01
 1.096917e+00  9.030828e-01
 1.097498e+00  9.025020e-01
 1.098020e+00  9.019804e-01
 1.098481e+00  9.015186e-01
 1.098883e+00  9.011172e-01
 1.099223e+00  9.007767e-01
 1.099502e+00  9.004976e-01
 1.099720e+00  9.002801e-01
 1.099875e+00  9.001245e-01
 1.099969e+00  9.000311e-01
 1.100000e+00  9.000000e-01
 1.000000e+00  1.000000e+00
 1.000031e+00  9.999689e-01
 1.000125e+00  9.998755e-01
 1.000280e+00  9.997199e-01
 1.000498e+00  9.995024e-01
 1.000777e+00  9.992233e-01
 1.001117e+00  9.988828e-01
 1.001519e+00  9.984814e-01
 1.001980e+00  9.980196e-01
 1.002502e+00  9.974980e-01
 1.003083e+00  9.969172e-01
 1.003722e+00  9.962780e-01
 1.004419e+00  9.955811e-01
 1.005173e+00  9.948274e-01
 1.005982e+00  9.940178e-01
 1.006847e+00  9.931534e-01
 1.007765e+00  9.922353e-01
 1.008735e+00  9.912645e-01
 1.009758e+00  9.902424e-01
 1.010830e+00  9.891701e-01
 1.011951e+00  9.880489e-01
 1.013120e+00  9.868804e-01
 1.014334e+00  9.856660e-01
 1.015593e+00  9.844071e-01
 1.016895e+00  9.831053e-01
 1.018238e+00  9.817623e-01
 1.019620e+00  9.803797e-01
 1.021041e+00  9.789593e-01
 1.022497e+00  9.775028e-01
 1.023988e+00  9.760120e-01
 1.025511e+00  9.744888e-01
 1.027065e+00  9.729351e-01
 1.028647e+00  9.713528e-01
 1.030256e+00  9.697439e-01
 1.031890e+00  9.681105e-01
 1.033546e+00  9.664544e-01
 1.035222e+00  9.647779e-01
 1.036917e+00  9.630830e-01
 1.038628e+00  9.613717e-01
 1.040354e+00  9.596463e-01
 1.042091e+00  9.579089e-01
 1.043838e+00  9.561616e-01
 1.045593e+00  9.544066e-01
 1.047354e+00  9.526462e-01
 1.049118e+00  9.508824e-01
 1.050882e+00  9.491176e-01
 1.052646e+00  9.473538e-01
 1.054407e+00  9.455934e-01
 1.056162e+00  9.438384e-01
 1.057909e+00  9.420911e-01
 1.059646e+00  9.403537e-01
 1.061372e+00  9.386283e-01
 1.063083e+00  9.369170e-01
 1.064778e+00  9.352221e-01
 1.066454e+00  9.335456e-01
 1.068110e+00  9.318895e-01
 1.069744e+00  9.302561e-01
 1.071353e+00  9.286472e-01
 1.072935e+00  9.270649e-01
 1.074489e+00  9.255112e-01
 1.076012e+00  9.239880e-01
 1.077503e+00  9.224972e-01
 1.078959e+00  9.210407e-01
 1.080380e+00  9.196203e-01
 1.081762e+00  9.182377e-01
 1.083105e+00  9.168947e-01
 1.084407e+00  9.155929e-01
 1.085666e+00  9.143340e-01
 1.086880e+00  9.131196e-01
 1.088049e+00  9.119511e-01
 1.089170e+00  9.108299e-01
 1.090242e+00  9.097576e-01
 1.091265e+00  9.087355e-01
 1.092235e+00  9.077647e-01
 1.093153e+00  9.068466e-01
 1.094018e+00  9.059822e-01
 1.094827e+00  9.051726e-01
 1.095581e+00  9.044189e-01
 1.096278e+00  9.037220e-01
 1.096917e+00  9.030828e-01
 1.097498e+00  9.025020e-01
 1.098020e+00  9.019804e-01
 1.098481e+00  9.015186e-01
 1.098883e+00  9.011172e-01
 1.099223e+00  9.007767e-01
 1.099502e+00  9.004976e-01
 1.099720e+00  9.002801e-01
 1.099875e+00  9.001245e-01
 1.099969e+00  9.000311e-01
 1.100000e+00  9.000000e-01
 1.000000e+00  1.000000e+00
 1.000031e+00  9.999689e-01
 1.000125e+00  9.998755e-01
 1.000280e+00  9.997199e-01
 1.000498e+00  9.995024e-01
 1.000777e+00  9.992233e-01
 1.001117e+00  9.988828e-01
 1.001519e+00  9.984814e-01
 1.001980e+00  9.980196e-01
 1.002502e+00  9.974980e-01
 1.003083e+00  9.969172e-01
 1.003722e+00  9.962780e-01
 1.004419e+00  9.955811e-01
 1.005173e+00  9.948274e-01
 1.005982e+00  9.940178e-01
 1.006847e+00  9.931534e-01
 1.007765e+00  9.922353e-01
 1.008735e+00  9.912645e-01
 1.009758e+00  9.902424e-01
 1.010830e+00  9.891701e-01
 1.011951e+00  9.880489e-01
 1.013120e+00  9.868804e-01
 1.014334e+00  9.856660e-01
 1.015593e+00  9.844071e-01
 1.016895e+00  9.831053e-01
 1.018238e+00  9.817623e-01
 1.019620e+00  9.803797e-01
 1.021041e+00  9.789593e-01
 1.022497e+00  9.775028e-01
 1.023988e+00  9.760120e-01
 1.025511e+00  9.744888e-01
 1.027065e+00  9.729351e-01
 1.028647e+00  9.713528e-01
 1.030256e+00  9.697439e-01
 1.031890e+00  9.681105e-01
 1.033546e+00  9.664544e-01
 1.035222e+00  9.647779e-01
 1.036917e+00  9.630830e-01
 1.038628e+00  9.613717e-01
 1.040354e+00  9.596463e-01
 1.042091e+00  9.579089e-01
 1.043838e+00  9.561616e-01
 1.045593e+00  9.544066e-01
 1.047354e+00  9.526462e-01
 1.049118e+00  9.508824e-01
 1.050882e+00  9.491176e-01
 1.052646e+00  9.473538e-01
 1.054407e+00  9.455934e-01
 1.056162e+00  9.438384e-01
 1.057909e+00  9.420911e-01
 1.059646e+00  9.403537e-01
 1.061372e+00  9.386283e-01
 1.063083e+00  9.369170e-01
 1.064778e+00  9.352221e-01
 1.066454e+00  9.335456e-01
 1.068110e+00  9.318895e-01
 1.069744e+00  9.302561e-01
 1.071353e+00  9.286472e-01
 1.072935e+00  9.270649e-01
 1.074489e+00  9.255112e-01
 1.076012e+00  9.239880e-01
 1.077503e+00  9.224972e-01
 1.078959e+00  9.210407e-01
 1.080380e+00  9.196203e-01
 1.081762e+00  9.182377e-01
 1.083105e+00  9.168947e-01
 1.084407e+00  9.155929e-01
 1.085666e+00  9.143340e-01
 1.086880e+00  9.131196e-01
 1.088049e+00  9.119511e-01
 1.089170e+00  9.108299e-01
 1.090242e+00  9.097576e-01
 1.091265e+00  9.087355e-01
 1.092235e+00  9.077647e-01
 1.093153e+00  9.068466e-01
 1.094018e+00  9.059822e-01
 1.094827e+00  9.051726e-01
 1.095581e+00  9.044189e-01
 1.096278e+00  9.037220e-01
 1.096917e+00  9.030828e-01
 1.097498e+00  9.025020e-01
 1.098020e+00  9.019804e-01
 1.098481e+00  9.015186e-01
 1.098883e+00  9.011172e-01
 1.099223e+00  9.007767e-01
 1.099502e+00  9.004976e-01
 1.099720e+00  9.002801e-01
 1.099875e+00  9.001245e-01
 1.099969e+00  9.000311e-01
 1.100000e+00  9.000000e-01
 1.000000e+00  1.000000e+00
 1.000031e+00  9.999689e-01
 1.000125e+00  9.998755e-01
 1.000280e+00  9.997199e-01
 1.000498e+00  9.995024e-01
 1.000777e+00  9.992233e-01
 1.001117e+00  9.988828e-01
 1.001519e+00  9.984814e-01
 1.001980e+00  9.980196e-01
 1.002502e+00  9.974980e-01
 1.003083e+00  9.969172e-01
 1.003722e+00  9.962780e-01
 1.004419e+00  9.955811e-01
 1.005173e+00  9.948274e-01
 1.005982e+00  9.940178e-01
 1.006847e+00  9.931534e-01
 1.007765e+00  9.922353e-01
 1.008735e+00  9.912645e-01
 1.009758e+00  9.902424e-01
 1.010830e+00  9.891701e-01
 1.011951e+00  9.880489e-01
 1.013120e+00  9.868804e-01
 1.014334e+00  9.856660e-01
 1.015593e+00  9.844071e-01
 1.016895e+00  9.831053e-01
 1.018238e+00  9.817623e-01
 1.019620e+00  9.803797e-01
 1.021041e+00  9.789593e-01
 1.022497e+00  9.775028e-01
 1.023988e+00  9.760120e-01
 1.025511e+00  9.744888e-01
 1.027065e+00  9.729351e-01
 1.028647e+00  9.713528e-01
 1.030256e+00  9.697439e-01
 1.031890e+00  9.681105e-01
 1.033546e+00  9.664544e-01
 1.035222e+00  9.647779e-01
 1.036917e+00  9.630830e-01
 1.038628e+00  9.613717e-01
 1.040354e+00  9.596463e-01
 1.042091e+00  9.579089e-01
 1.043838e+00  9.561616e-01
 1.045593e+00  9.544066e-01
 1.047354e+00  9.526462e-01
 1.049118e+00  9.508824e-01
 1.050882e+00  9.491176e-01
 1.052646e+00  9.473538e-01
 1.054407e+00  9.455934e-01
 1.056162e+00  9.438384e-01
 1.057909e+00  9.420911e-01
 1.059646e+00  9.403537e-01
 1.061372e+00  9.386283e-01
 1.063083e+00  9.369170e-01
 1.064778e+00  9.352221e-01
 1.066454e+00  9.335456e-01
 1.068110e+00  9.318895e-01
 1.069744e+00  9.302561e-01
 1.071353e+00  9.286472e-01
 1.072935e+00  9.270649e-01
 1.074489e+00  9.255112e-01
 1.076012e+00  9.239880e-01
 1.077503e+00  9.224972e-01
 1.078959e+00  9.210407e-01
 1.080380e+00  9.196203e-01
 1.081762e+00  9.182377e-01
 1.083105e+00  9.168947e-01
 1.084407e+00  9.155929e-01
 1.085666e+00  9.143340e-01
 1.086880e+00  9.131196e-01
 1.088049e+00  9.119511e-01
 1.089170e+00  9.108299e-01
 1.090242e+00  9.097576e-01
 1.091265e+00  9.087355e-01
 1.092235e+00  9.077647e-01
 1.093153e+00  9.068466e-01
 1.094018e+00  9.059822e-01
 1.094827e+00  9.051726e-01
 1.095581e+00  9.044189e-01
 1.096278e+00  9.037220e-01
 1.096917e+00  9.030828e-01
 1.097498e+00  9.025020e-01
 1.098020e+00  9.019804e-01
 1.098481e+00  9.015186e-01
 1.098883e+00  9.011172e-01
 1.099223e+00  9.007767e-01
 1.099502e+00  9.004976e-01
 1.099720e+00  9.002801e-01
 1.099875e+00  9.001245e-01
 1.099969e+00  9.000311e-01
 1.100000e+00  9.000000e-01
 1.000000e+00  1.000000e+00
 1.000031e+00  9.999689e-01
 1.000125e+00  9.998755e-01
 1.000280e+00  9.997199e-01
 1.000498e+00  9.995024e-01
 1.000777e+00  9.992233e-01
 1.001117e+00  9.988828e-01
 1.001519e+00  9.984814e-01
 1.001980e+00  9.980196e-01
 1.002502e+00  9.974980e-01
 1.003083e+00  9.969172e-01
 1.003722e+00  9.962780e-01
 1.004419e+00  9.955811e-01
 1.005173e+00  9.948274e-01
 1.005982e+00  9.940178e-01
 1.006847e+00  9.931534e-01
 1.007765e+00  9.922353e-01
 1.008735e+00  9.912645e-01
 1.009758e+00  9.902424e-01
 1.010830e+00  9.891701e-01
 1.011951e+00  9.880489e-01
 1.013120e+00  9.868804e-01
 1.014334e+00  9.856660e-01
 1.015593e+00  9.844071e-01
 1.016895e+00  9.831053e-01
 1.018238e+00  9.817623e-01
 1.019620e+00  9.803797e-01
 1.021041e+00  9.789593e-01
 1.022497e+00  9.775028e-01
 1.023988e+00  9.760120e-01
 1.025511e+00  9.744888e-01
 1.027065e+00  9.729351e-01
 1.028647e+00  9.713528e-01
 1.030256e+00  9.697439e-01
 1.031890e+00  9.681105e-01
 1.033546e+00  9.664544e-01
 1.035222e+00  9.647779e-01
 1.036917e+00  9.630830e-01
 1.038628e+00  9.613717e-01
 1.040354e+00  9.596463e-01
 1.042091e+00  9.579089e-01
 1.043838e+00  9.561616e-01
 1.045593e+00  9.544066e-01
 1.047354e+00  9.526462e-01
 1.049118e+00  9.508824e-01
 1.050882e+00  9.491176e-01
 1.052646e+00  9.473538e-01
 1.054407e+00  9.455934e-01
 1.056162e+00  9.438384e-01
 1.057909e+00  9.420911e-01
 1.059646e+00  9.403537e-01
 1.061372e+00  9.386283e-01
 1.063083e+00  9.369170e-01
 1.064778e+00  9.352221e-01
 1.066454e+00  9.335456e-01
 1.068110e+00  9.318895e-01
 1.069744e+00  9.302561e-01
 1.071353e+00  9.286472e-01
 1.072935e+00  9.270649e-01
 1.074489e+00  9.255112e-01
 1.076012e+00  9.239880e-01
 1.077503e+00  9.224972e-01
 1.078959e+00  9.210407e-01
 1.080380e+00  9.196203e-01
 1.081762e+00  9.182377e-01
 1.083105e+00  9.168947e-01
 1.084407e+00  9.155929e-01
 1.085666e+00  9.143340e-01
 1.086880e+00  9.131196e-01
 1.088049e+00  9.119511e-01
 1.089170e+00  9.108299e-01
 1.090242e+00  9.097576e-01
 1.091265e+00  9.087355e-01
 1.092235e+00  9.077647e-01
 1.093153e+00  9.068466e-01
 1.094018e+00  9.059822e-01
 1.094827e+00  9.051726e-01
 1.095581e+00  9.044189e-01
 1.096278e+00  9.037220e-01
 1.096917e+00  9.030828e-01
 1.097498e+00  9.025020e-01
 1.098020e+00  9.019804e-01
 1.098481e+00  9.015186e-01
 1.098883e+00  9.011172e-01
 1.099223e+00  9.007767e-01
 1.099502e+00  9.004976e-01
 1.099720e+00  9.002801e-01
 1.099875e+00  9.001245e-01
 1.099969e+00  9.000311e-01
 1.100000e+00  9.000000e-01
 1.000000e+00  1.000000e+00
 1.000031e+00  9.999689e-01
 1.000125e+00  9.998755e-01
 1.000280e+00  9.997199e-01
 1.000498e+00  9.995024e-01
 1.000777e+00  9.992233e-01
 1.001117e+00  9.988828e-01
 1.001519e+00  9.984814e-01
 1.001980e+00  9.980196e-01
 1.002502e+00  9.974980e-01
 1.003083e+00  9.969172e-01
 1.003722e+00  9.962780e-01
 1.004419e+00  9.955811e-01
 1.005173e+00  9.948274e-01
 1.005982e+00  9.940178e-01
 1.006847e+00  9.931534e-01
 1.007765e+00  9.922353e-01
 1.008735e+00  9.912645e-01
 1.009758e+00  9.902424e-01
 1.010830e+00  9.891701e-01
 1.011951e+00  9.880489e-01
 1.013120e+00  9.868804e-01
 1.014334e+00  9.856660e-01
 1.015593e+00  9.844071e-01
 1.016895e+00  9.831053e-01
 1.018238e+00  9.817623e-01
 1.019620e+00  9.803797e-01
 1.021041e+00  9.789593e-01
 1.022497e+00  9.775028e-01
 1.023988e+00  9.760120e-01
 1.025511e+00  9.744888e-01
 1.027065e+00  9.729351e-01
 1.028647e+00  9.713528e-01
 1.030256e+00  9.697439e-01
 1.031890e+00  9.681105e-01
 1.033546e+00  9.664544e-01
 1.035222e+00  9.647779e-01
 1.036917e+00  9.630830e-01
 1.038628e+00  9.613717e-01
 1.040354e+00  9.596463e-01
 1.042091e+00  9.579089e-01
 1.043838e+00  9.561616e-01
 1.045593e+00  9.544066e-01
 1.047354e+00  9.526462e-01
 1.049118e+00  9.508824e-01
 1.050882e+00  9.491176e-01
 1.052646e+00  9.473538e-01
 1.054407e+00  9.455934e-01
 1.056162e+00  9.438384e-01
 1.057909e+00  9.420911e-01
 1.059646e+00  9.403537e-01
 1.061372e+00  9.386283e-01
 1.063083e+00  9.369170e-01
 1.064778e+00  9.352221e-01
 1.066454e+00  9.335456e-01
 1.068110e+00  9.318895e-01
 1.069744e+00  9.302561e-01
 1.071353e+00  9.286472e-01
 1.072935e+00  9.270649e-01
 1.074489e+00  9.255112e-01
 1.076012e+00  9.239880e-01
 1.077503e+00  9.224972e-01
 1.078959e+00  9.210407e-01
 1.080380e+00  9.196203e-01
 1.081762e+00  9.182377e-01
 1.083105e+00  9.168947e-01
 1.084407e+00  9.155929e-01
 1.085666e+00  9.143340e-01
 1.086880e+00  9.131196e-01
 1.088049e+00  9.119511e-01
 1.089170e+00  9.108299e-01
 1.090242e+00  9.097576e-01
 1.091265e+00  9.087355e-01
 1.092235e+00  9.077647e-01
 1.093153e+00  9.068466e-01
 1.094018e+00  9.059822e-01
 1.094827e+00  9.051726e-01
 1.095581e+00  9.044189e-01
 1.096278e+00  9.037220e-01
 1.096917e+00  9.030828e-01
 1.097498e+00  9.025020e-01
 1.098020e+00  9.019804e-01
 1.098481e+00  9.015186e-01
 1.098883e+00  9.011172e-01
 1.099223e+00  9.007767e-01
 1.099502e+00  9.004976e-01
 1.099720e+00  9.002801e-01
 1.099875e+00  9.001245e-01
 1.099969e+00  9.000311e-01
 1.100000e+00  9.000000e-01
 1.000000e+00  1.000000e+00
 1.000031e+00  9.999689e-01
 1.000125e+00  9.998755e-01
 1.000280e+00  9.997199e-01
 1.000498e+00  9.995024e-01
 1.000777e+00  9.992233e-01
 1.001117e+00  9.988828e-01
 1.001519e+00  9.984814e-01
 1.001980e+00  9.980196e-01
 1.002502e+00  9.974980e-01
 1.003083e+00  9.969172e-01
 1.003722e+00  9.962780e-01
 1.004419e+00  9.955811e-01
 1.005173e+00  9.948274e-01
 1.005982e+00  9.940178e-01
 1.006847e+00  9.931534e-01
 1.007765e+00  9.922353e-01
 1.008735e+00  9.912645e-01
 1.009758e+00  9.902424e-01
 1.010830e+00  9.891701e-01
 1.011951e+00  9.880489e-01
 1.013120e+00  9.868804e-01
 1.014334e+00  9.856660e-01
 1.015593e+00  9.844071e-01
 1.016895e+00  9.831053e-01
 1.018238e+00  9.817623e-01
 1.019620e+00  9.803797e-01
 1.021041e+00  9.789593e-01
 1.022497e+00  9.775028e-01
 1.023988e+00  9.760120e-01
 1.025511e+00  9.744888e-01
 1.027065e+00  9.729351e-01
 1.028647e+00  9.713528e-01
 1.030256e+00  9.697439e-01
 1.031890e+00  9.681105e-01
 1.033546e+00  9.664544e-01
 1.035222e+00  9.647779e-01
 1.036917e+00  9.630830e-01
 1.038628e+00  9.613717e-01
 1.040354e+00  9.596463e-01
 1.042091e+00  9.579089e-01
 1.043838e+00  9.561616e-01
 1.045593e+00  9.544066e-01
 1.047354e+00  9.526462e-01
 1.049118e+00  9.508824e-01
 1.050882e+00  9.491176e-01
 1.052646e+00  9.473538e-01
 1.054407e+00  9.455934e-01
 1.056162e+00  9.438384e-01
 1.057909e+00  9.420911e-01
 1.059646e+00  9.403537e-01
 1.061372e+00  9.386283e-01
 1.063083e+00  9.369170e-01
 1.064778e+00  9.352221e-01
 1.066454e+00  9.335456e-01
 1.068110e+00  9.318895e-01
 1.069744e+00  9.302561e-01
 1.071353e+00  9.286472e-01
 1.072935e+00  9.270649e-01
 1.074489e+00  9.255112e-01
 1.076012e+00  9.239880e-01
 1.077503e+00  9.224972e-01
 1.078959e+00  9.210407e-01
 1.080380e+00  9.196203e-01
 1.081762e+00  9.182377e-01
 1.083105e+00  9.168947e-01
 1.084407e+00  9.155929e-01
 1.085666e+00  9.143340e-01
 1.086880e+00  9.131196e-01
 1.088049e+00  9.119511e-01
 1.089170e+00  9.108299e-01
 1.090242e+00  9.097576e-01
 1.091265e+00  9.087355e-01
 1.092235e+00  9.077647e-01
 1.093153e+00  9.068466e-01
 1.094018e+00  9.059822e-01
 1.094827e+00  9.051726e-01
 1.095581e+00  9.044189e-01
 1.096278e+00  9.037220e-01
 1.096917e+00  9.030828e-01
 1.097498e+00  9.025020e-01
 1.098020e+00  9.019804e-01
 1.098481e+00  9.015186e-01
 1.098883e+00  9.011172e-01
 1.099223e+00  9.007767e-01
 1.099502e+00  9.004976e-01
 1.099720e+00  9.002801e-01
 1.099875e+00  9.001245e-01
 1.099969e+00  9.000311e-01
 1.100000e+00  9.000000e-01
 1.000000e+00  1.000000e+00
 1.000031e+00  9.999689e-01
 1.000125e+00  9.998755e-01
 1.000280e+00  9.997199e-01
 1.000498e+00  9.995024e-01
 1.000777e+00  9.992233e-01
 1.001117e+00  9.988828e-01
 1.001519e+00  9.984814e-01
 1.001980e+00  9.980196e-01
 1.002502e+00  9.974980e-01
 1.003083e+00  9.969172e-01
 1.003722e+00  9.962780e-01
 1.004419e+00  9.955811e-01
 1.005173e+00  9.948274e-01
 1.005982e+00  9.940178e-01
 1.006847e+00  9.931534e-01
 1.007765e+00  9.922353e-01
 1.008735e+00  9.912645e-01
 1.009758e+00  9.902424e-01
 1.010830e+00  9.891701e-01
 1.011951e+00  9.880489e-01
 1.013120e+00  9.868804e-01
 1.014334e+00  9.856660e-01
 1.015593e+00  9.844071e-01
 1.016895e+00  9.831053e-01
 1.018238e+00  9.817623e-01
 1.019620e+00  9.803797e-01
 1.021041e+00  9.789593e-01
 1.022497e+00  9.775028e-01
 1.023988e+00  9.760120e-01
 1.025511e+00  9.744888e-01
 1.027065e+00  9.729351e-01
 1.028647e+00  9.713528e-01
 1.030256e+00  9.697439e-01
 1.031890e+00  9.681105e-01
 1.033546e+00  9.664544e-01
 1.035222e+00  9.647779e-01
 1.036917e+00  9.630830e-01
 1.038628e+00  9.613717e-01
 1.040354e+00  9.596463e-01
 1.042091e+00  9.579089e-01
 1.043838e+00  9.561616e-01
 1.045593e+00  9.544066e-01
 1.047354e+00  9.526462e-01
 1.049118e+00  9.508824e-01
 1.050882e+00  9.491176e-01
 1.052646e+00  9.473538e-01
 1.054407e+00  9.455934e-01
 1.056162e+00  9.438384e-01
 1.057909e+00  9.420911e-01
 1.059646e+00  9.403537e-01
 1.061372e+00  9.386283e-01
 1.063083e+00  9.369170e-01
 1.064778e+00  9.352221e-01
 1.066454e+00  9.335456e-01
 1.068110e+00  9.318895e-01
 1.069744e+00  9.302561e-01
 1.071353e+00  9.286472e-01
 1.072935e+00  9.270649e-01
 1.074489e+00  9.255112e-01
 1.076012e+00  9.239880e-01
 1.077503e+00  9.224972e-01
 1.078959e+00  9.210407e-01
 1.080380e+00  9.196203e-01
 1.081762e+00  9.182377e-01
 1.083105e+00  9.168947e-01
 1.084407e+00  9.155929e-01
 1.085666e+00  9.143340e-01
 1.086880e+00  9.131196e-01
 1.088049e+00  9.119511e-01
 1.089170e+00  9.108299e-01
 1.090242e+00  9.097576e-01
 1.091265e+00  9.087355e-01
 1.092235e+00  9.077647e-01
 1.093153e+00  9.068466e-01
 1.094018e+00  9.059822e-01
 1.094827e+00  9.051726e-01
 1.095581e+00  9.044189e-01
 1.096278e+00  9.037220e-01
 1.096917e+00  9.030828e-01
 1.097498e+00  9.025020e-01
 1.098020e+00  9.019804e-01
 1.098481e+00  9.015186e-01
 1.098883e+00  9.011172e-01
 1.099223e+00  9.007767e-01
 1.099502e+00  9.004976e-01
 1.099720e+00  9.002801e-01
 1.099875e+00  9.001245e-01
 1.099969e+00  9.000311e-01
 1.100000e+00  9.000000e-01
 1.000000e+00  1.000000e+00
 1.000031e+00  9.999689e-01
 1.000125e+00  9.998755e-01
 1.000280e+00  9.997199e-01
 1.000498e+00  9.995024e-01
 1.000777e+00  9.992233e-01
 1.001117e+00  9.988828e-01
 1.001519e+00  9.984814e-01
 1.001980e+00  9.980196e-01
 1.002502e+00  9.974980e-01
 1.003083e+00  9.969172e-01
 1.003722e+00  9.962780e-01
 1.004419e+00  9.955811e-01
 1.005173e+00  9.948274e-01
 1.005982e+00  9.940178e-01
 1.006847e+00  9.931534e-01
 1.007765e+00  9.922353e-01
 1.008735e+00  9.912645e-01
 1.009758e+00  9.902424e-01
 1.010830e+00  9.891701e-01
 1.011951e+00  9.880489e-01
 1.013120e+00  9.868804e-01
 1.014334e+00  9.856660e-01
 1.015593e+00  9.844071e-01
 1.016895e+00  9.831053e-01
 1.018238e+00  9.817623e-01
 1.019620e+00  9.803797e-01
 1.021041e+00  9.789593e-01
 1.022497e+00  9.775028e-01
 1.023988e+00  9.760120e-01
 1.025511e+00  9.744888e-01
 1.027065e+00  9.729351e-01
 1.028647e+00  9.713528e-01
 1.030256e+00  9.697439e-01
 1.031890e+00  9.681105e-01
 1.033546e+00  9.664544e-01
 1.035222e+00  9.647779e-01
 1.036917e+00  9.630830e-01
 1.038628e+00  9.613717e-01
 1.040354e+00  9.596463e-01
 1.042091e+00  9.579089e-01
 1.043838e+00  9.561616e-01
 1.045593e+00  9.544066e-01
 1.047354e+00  9.526462e-01
 1.049118e+00  9.508824e-01
 1.050882e+00  9.491176e-01
 1.052646e+00  9.473538e-01
 1.054407e+00  9.455934e-01
 1.056162e+00  9.438384e-01
 1.057909e+00  9.420911e-01
 1.059646e+00  9.403537e-01
 1.061372e+00  9.386283e-01
 1.063083e+00  9.369170e-01
 1.064778e+00  9.352221e-01
 1.066454e+00  9.335456e-01
 1.068110e+00  9.318895e-01
 1.069744e+00  9.302561e-01
 1.071353e+00  9.286472e-01
 1.072935e+00  9.270649e-01
 1.074489e+00  9.255112e-01
 1.076012e+00  9.239880e-01
 1.077503e+00  9.224972e-01
 1.078959e+00  9.210407e-01
 1.080380e+00  9.196203e-01
 1.081762e+00  9.182377e-01
 1.083105e+00  9.168947e-01
 1.084407e+00  9.155929e-01
 1.085666e+00  9.143340e-01
 1.086880e+00  9.131196e-01
 1.088049e+00  9.119511e-01
 1.089170e+00  9.108299e-01
 1.090242e+00  9.097576e-01
 1.091265e+00  9.087355e-01
 1.092235e+00  9.077647e-01
 1.093153e+00  9.068466e-01
 1.094018e+00  9.059822e-01
 1.094827e+00  9.051726e-01
 1.095581e+00  9.044189e-01
 1.096278e+00  9.037220e-01
 1.096917e+00  9.030828e-01
 1.097498e+00  9.025020e-01
 1.098020e+00  9.019804e-01
 1.098481e+00  9.015186e-01
 1.098883e+00  9.011172e-01
 1.099223e+00  9.007767e-01
 1.099502e+00  9.004976e-01
 1.099720e+00  9.002801e-01
 1.099875e+00  9.001245e-01
 1.099969e+00  9.000311e-01
 1.100000e+00  9.000000e-01
 1.000000e+00  1.000000e+00
 1.000031e+00  9.999689e-01
 1.000125e+00  9.998755e-01
 1.000280e+00  9.997199e-01
 1.000498e+00  9.995024e-01
 1.000777e+00  9.992233e-01
 1.001117e+00  9.988828e-01
 1.001519e+00  9.984814e-01
 1.001980e+00  9.980196e-01
 1.002502e+00  9.974980e-01
 1.003083e+00  9.969172e-01
 1.003722e+00  9.962780e-01
 1.004419e+00  9.955811e-01
 1.005173e+00  9.948274e-01
 1.005982e+00  9.940178e-01
 1.006847e+00  9.931534e-01
 1.007765e+00  9.922353e-01
 1.008735e+00  9.912645e-01
 1.009758e+00  9.902424e-01
 1.010830e+00  9.891701e-01
 1.011951e+00  9.880489e-01
 1.013120e+00  9.868804e-01
 1.014334e+00  9.856660e-01
 1.015593e+00  9.844071e-01
 1.016895e+00  9.831053e-01
 1.018238e+00  9.817623e-01
 1.019620e+00  9.803797e-01
 1.021041e+00  9.789593e-01
 1.022497e+00  9.775028e-01
 1.023988e+00  9.760120e-01
 1.025511e+00  9.744888e-01
 1.027065e+00  9.729351e-01
 1.028647e+00  9.713528e-01
 1.030256e+00  9.697439e-01
 1.031890e+00  9.681105e-01
 1.033546e+00  9.664544e-01
 1.035222e+00  9.647779e-01
 1.036917e+00  9.630830e-01
 1.038628e+00  9.613717e-01
 1.040354e+00  9.596463e-01
 1.042091e+00  9.579089e-01
 1.043838e+00  9.561616e-01
 1.045593e+00  9.544066e-01
 1.047354e+00  9.526462e-01
 1.049118e+00  9.508824e-01
 1.050882e+00  9.491176e-01
 1.052646e+00  9.473538e-01
 1.054407e+00  9.455934e-01
 1.056162e+00  9.438384e-01
 1.057909e+00  9.420911e-01
 1.059646e+00  9.403537e-01
 1.061372e+00  9.386283e-01
 1.063083e+00  9.369170e-01
 1.064778e+00  9.352221e-01
 1.066454e+00  9.335456e-01
 1.068110e+00  9.318895e-01
 1.069744e+00  9.302561e-01
 1.071353e+00  9.286472e-01
 1.072935e+00  9.270649e-01
 1.074489e+00  9.255112e-01
 1.076012e+00  9.239880e-01
 1.077503e+00  9.224972e-01
 1.078959e+00  9.210407e-01
 1.080380e+00  9.196203e-01
 1.081762e+00  9.182377e-01
 1.083105e+00  9.168947e-01
 1.084407e+00  9.155929e-01
 1.085666e+00  9.143340e-01
 1.086880e+00  9.131196e-01
 1.088049e+00  9.119511e-01
 1.089170e+00  9.108299e-01
 1.090242e+00  9.097576e-01
 1.091265e+00  9.087355e-01
 1.092235e+00  9.077647e-01
 1.093153e+00  9.068466e-01
 1.094018e+00  9.059822e-01
 1.094827e+00  9.051726e-01
 1.095581e+00  9.044189e-01
 1.096278e+00  9.037220e-01
 1.096917e+00  9.030828e-01
 1.097498e+00  9.025020e-01
 1.098020e+00  9.019804e-01
 1.098481e+00  9.015186e-01
 1.098883e+00  9.011172e-01
 1.099223e+00  9.007767e-01
 1.099502e+00  9.004976e-01
 1.099720e+00  9.002801e-01
 1.099875e+00  9.001245e-01
 1.099969e+00  9.000311e-01
 1.100000e+00  9.000000e-01
 1.000000e+00  1.000000e+00
 1.000031e+00  9.999689e-01
 1.000125e+00  9.998755e-01
 1.000280e+00  9.997199e-01
 1.000498e+00  9.995024e-01
 1.000777e+00  9.992233e-01
 1.001117e+00  9.988828e-01
 1.001519e+00  9.984814e-01
 1.001980e+00  9.980196e-01
 1.002502e+00  9.974980e-01
 1.003083e+00  9.969172e-01
 1.003722e+00  9.962780e-01
 1.004419e+00  9.955811e-01
 1.005173e+00  9.948274e-01
 1.005982e+00  9.940178e-01
 1.006847e+00  9.931534e-01
 1.007765e+00  9.922353e-01
 1.008735e+00  9.912645e-01
 1.009758e+00  9.902424e-01
 1.010830e+00  9.891701e-01
 1.011951e+00  9.880489e-01
 1.013120e+00  9.868804e-01
 1.014334e+00  9.856660e-01
 1.015593e+00  9.844071e-01
 1.016895e+00  9.831053e-01
 1.018238e+00  9.817623e-01
 1.019620e+00  9.803797e-01
 1.021041e+00  9.789593e-01
 1.022497e+00  9.775028e-01
 1.023988e+00  9.760120e-01
 1.025511e+00  9.744888e-01
 1.027065e+00  9.729351e-01
 1.028647e+00  9.713528e-01
 1.030256e+00  9.697439e-01
 1.031890e+00  9.681105e-01
 1.033546e+00  9.664544e-01
 1.035222e+00  9.647779e-01
 1.036917e+00  9.630830e-01
 1.038628e+00  9.613717e-01
 1.040354e+00  9.596463e-01
 1.042091e+00  9.579089e-01
 1.043838e+00  9.561616e-01
 1.045593e+00  9.544066e-01
 1.047354e+00  9.526462e-01
 1.049118e+00  9.508824e-01
 1.050882e+00  9.491176e-01
 1.052646e+00  9.473538e-01
 1.054407e+00  9.455934e-01
 1.056162e+00  9.438384e-01
 1.057909e+00  9.420911e-01
 1.059646e+00  9.403537e-01
 1.061372e+00  9.386283e-01
 1.063083e+00  9.369170e-01
 1.064778e+00  9.352221e-01
 1.066454e+00  9.335456e-01
 1.068110e+00  9.318895e-01
 1.069744e+00  9.302561e-01
 1.071353e+00  9.286472e-01
 1.072935e+00  9.270649e-01
 1.074489e+00  9.255112e-01
 1.076012e+00  9.239880e-01
 1.077503e+00  9.224972e-01
 1.078959e+00  9.210407e-01
 1.080380e+00  9.196203e-01
 1.081762e+00  9.182377e-01
 1.083105e+00  9.168947e-01
 1.084407e+00  9.155929e-01
 1.085666e+00  9.143340e-01
 1.086880e+00  9.131196e-01
 1.088049e+00  9.119511e-01
 1.089170e+00  9.108299e-01
 1.090242e+00  9.097576e-01
 1.091265e+00  9.087355e-01
 1.092235e+00  9.077647e-01
 1.093153e+00  9.068466e-01
 1.094018e+00  9.059822e-01
 1.094827e+00  9.051726e-01
 1.095581e+00  9.044189e-01
 1.096278e+00  9.037220e-01
 1.096917e+00  9.030828e-01
 1.097498e+00  9.025020e-01
 1.098020e+00  9.019804e-01
 1.098481e+00  9.015186e-01
 1.098883e+00  9.011172e-01
 1.099223e+00  9.007767e-01
 1.099502e+00  9.004976e-01
 1.099720e+00  9.002801e-01
 1.099875e+00  9.001245e-01
 1.099969e+00  9.000311e-01
 1.100000e+00  9.000000e-01
 1.000000e+00  1.000000e+00
 1.000031e+00  9.999689e-01
 1.000125e+00  9.998755e-01
 1.000280e+00  9.997199e-01
 1.000498e+00  9.995024e-01
 1.000777e+00  9.992233e-01
 1.001117e+00  9.988828e-01
 1.001519e+00  9.984814e-01
 1.001980e+00  9.980196e-01
 1.002502e+00  9.974980e-01
 1.003083e+00  9.969172e-01
 1.003722e+00  9.962780e-01
 1.004419e+00  9.955811e-01
 1.005173e+00  9.948274e-01
 1.005982e+00  9.940178e-01
 1.006847e+00  9.931534e-01
 1.007765e+00  9.922353e-01
 1.008735e+00  9.912645e-01
 1.009758e+00  9.902424e-01
 1.010830e+00  9.891701e-01
 1.011951e+00  9.880489e-01
 1.013120e+00  9.868804e-01
 1.014334e+00  9.856660e-01
 1.015593e+00  9.844071e-01
 1.016895e+00  9.831053e-01
 1.018238e+00  9.817623e-01
 1.019620e+00  9.803797e-01
 1.021041e+00  9.789593e-01
 1.022497e+00  9.775028e-01
 1.023988e+00  9.760120e-01
 1.025511e+00  9.744888e-01
 1.027065e+00  9.729351e-01
 1.028647e+00  9.713528e-01
 1.030256e+00  9.697439e-01
 1.031890e+00  9.681105e-01
 1.033546e+00  9.664544e-01
 1.035222e+00  9.647779e-01
 1.036917e+00  9.630830e-01
 1.038628e+00  9.613717e-01
 1.040354e+00  9.596463e-01
 1.042091e+00  9.579089e-01
 1.043838e+00  9.561616e-01
 1.045593e+00  9.544066e-01
 1.047354e+00  9.526462e-01
 1.049118e+00  9.508824e-01
 1.050882e+00  9.491176e-01
 1.052646e+00  9.473538e-01
 1.054407e+00  9.455934e-01
 1.056162e+00  9.438384e-01
 1.057909e+00  9.420911e-01
 1.059646e+00  9.403537e-01
 1.061372e+00  9.386283e-01
 1.063083e+00  9.369170e-01
 1.064778e+00  9.352221e-01
 1.066454e+00  9.335456e-01
 1.068110e+00  9.318895e-01
 1.069744e+00  9.302561e-01
 1.071353e+00  9.286472e-01
 1.072935e+00  9.270649e-01
 1.074489e+00  9.255112e-01
 1.076012e+00  9.239880e-01
 1.077503e+00  9.224972e-01
 1.078959e+00  9.210407e-01
 1.080380e+00  9.196203e-01
 1.081762e+00  9.182377e-01
 1.083105e+00  9.168947e-01
 1.084407e+00  9.155929e-01
 1.085666e+00  9.143340e-01
 1.086880e+00  9.131196e-01
 1.088049e+00  9.119511e-01
 1.089170e+00  9.108299e-01
 1.090242e+00  9.097576e-01
 1.091265e+00  9.087355e-01
 1.092235e+00  9.077647e-01
 1.093153e+00  9.068466e-01
 1.094018e+00  9.059822e-01
 1.094827e+00  9.051726e-01
 1.095581e+00  9.044189e-01
 1.096278e+00  9.037220e-01
 1.096917e+00  9.030828e-01
 1.097498e+00  9.025020e-01
 1.098020e+00  9.019804e-01
 1.098481e+00  9.015186e-01
 1.098883e+00  9.011172e-01
 1.099223e+00  9.007767e-01
 1.099502e+00  9.004976e-01
 1.099720e+00  9.002801e-01
 1.099875e+00  9.001245e-01
 1.099969e+00  9.000311e-01
 1.100000e+00  9.000000e-01
 1.000000e+00  1.000000e+00
 1.000031e+00  9.999689e-01
 1.000125e+00  9.998755e-01
 1.000280e+00  9.997199e-01
 1.000498e+00  9.995024e-01
 1.000777e+00  9.992233e-01
 1.001117e+00  9.988828e-01
 1.001519e+00  9.984814e-01
 1.001980e+00  9.980196e-01
 1.002502e+00  9.974980e-01
 1.003083e+00  9.969172e-01
 1.003722e+00  9.962780e-01
 1.004419e+00  9.955811e-01
 1.005173e+00  9.948274e-01
 1.005982e+00  9.940178e-01
 1.006847e+00  9.931534e-01
 1.007765e+00  9.922353e-01
 1.008735e+00  9.912645e-01
 1.009758e+00  9.902424e-01
 1.010830e+00  9.891701e-01
 1.011951e+00  9.880489e-01
 1.013120e+00  9.868804e-01
 1.014334e+00  9.856660e-01
 1.015593e+00  9.844071e-01
 1.016895e+00  9.831053e-01
 1.018238e+00  9.817623e-01
 1.019620e+00  9.803797e-01
 1.021041e+00  9.789593e-01
 1.022497e+00  9.775028e-01
 1.023988e+00  9.760120e-01
 1.025511e+00  9.744888e-01
 1.027065e+00  9.729351e-01
 1.028647e+00  9.713528e-01
 1.030256e+00  9.697439e-01
 1.031890e+00  9.681105e-01
 1.033546e+00  9.664544e-01
 1.035222e+00  9.647779e-01
 1.036917e+00  9.630830e-01
 1.038628e+00  9.613717e-01
 1.040354e+00  9.596463e-01
 1.042091e+00  9.579089e-01
 1.043838e+00  9.561616e-01
 1.045593e+00  9.544066e-01
 1.047354e+00  9.526462e-01
 1.049118e+00  9.508824e-01
 1.050882e+00  9.491176e-01
 1.052646e+00  9.473538e-01
 1.054407e+00  9.455934e-01
 1.056162e+00  9.438384e-01
 1.057909e+00  9.420911e-01
 1.059646e+00  9.403537e-01
 1.061372e+00  9.386283e-01
 1.063083e+00  9.369170e-01
 1.064778e+00  9.352221e-01
 1.066454e+00  9.335456e-01
 1.068110e+00  9.318895e-01
 1.069744e+00  9.302561e-01
 1.071353e+00  9.286472e-01
 1.072935e+00  9.270649e-01
 1.074489e+00  9.255112e-01
 1.076012e+00  9.239880e-01
 1.077503e+00  9.224972e-01
 1.078959e+00  9.210407e-01
 1.080380e+00  9.196203e-01
 1.081762e+00  9.182377e-01
 1.083105e+00  9.168947e-01
 1.084407e+00  9.155929e-01
 1.085666e+00  9.143340e-01
 1.086880e+00  9.131196e-01
 1.088049e+00  9.119511e-01
 1.089170e+00  9.108299e-01
 1.090242e+00  9.097576e-01
 1.091265e+00  9.087355e-01
 1.092235e+00  9.077647e-01
 1.093153e+00  9.068466e-01
 1.094018e+00  9.059822e-01
 1.094827e+00  9.051726e-01
 1.095581e+00  9.044189e-01
 1.096278e+00  9.037220e-01
 1.096917e+00  9.030828e-01
 1.097498e+00  9.025020e-01
 1.098020e+00  9.019804e-01
 1.098481e+00  9.015186e-01
 1.098883e+00  9.011172e-01
 1.099223e+00  9.007767e-01
 1.099502e+00  9.004976e-01
 1.099720e+00  9.002801e-01
 1.099875e+00  9.001245e-01
 1.099969e+00  9.000311e-01
 1.100000e+00  9.000000e-01
 1.000000e+00  1.000000e+00
 1.000031e+00  9.999689e-01
 1.000125e+00  9.998755e-01
 1.000280e+00  9.997199e-01
 1.000498e+00  9.995024e-01
 1.000777e+00  9.992233e-01
 1.001117e+00  9.988828e-01
 1.001519e+00  9.984814e-01
 1.001980e+00  9.980196e-01
 1.002502e+00  9.974980e-01
 1.003083e+00  9.969172e-01
 1.003722e+00  9.962780e-01
 1.004419e+00  9.955811e-01
 1.005173e+00  9.948274e-01
 1.005982e+00  9.940178e-01
 1.006847e+00  9.931534e-01
 1.007765e+00  9.922353e-01
 1.008735e+00  9.912645e-01
 1.009758e+00  9.902424e-01
 1.010830e+00  9.891701e-01
 1.011951e+00  9.880489e-01
 1.013120e+00  9.868804e-01
 1.014334e+00  9.856660e-01
 1.015593e+00  9.844071e-01
 1.016895e+00  9.831053e-01
 1.018238e+00  9.817623e-01
 1.019620e+00  9.803797e-01
 1.021041e+00  9.789593e-01
 1.022497e+00  9.775028e-01
 1.023988e+00  9.760120e-01
 1.025511e+00  9.744888e-01
 1.027065e+00  9.729351e-01
 1.028647e+00  9.713528e-01
 1.030256e+00  9.697439e-01
 1.031890e+00  9.681105e-01
 1.033546e+00  9.664544e-01
 1.035222e+00  9.647779e-01
 1.036917e+00  9.630830e-01
 1.038628e+00  9.613717e-01
 1.040354e+00  9.596463e-01
 1.042091e+00  9.579089e-01
 1.043838e+00  9.561616e-01
 1.045593e+00  9.544066e-01
 1.047354e+00  9.526462e-01
 1.049118e+00  9.508824e-01
 1.050882e+00  9.491176e-01
 1.052646e+00  9.473538e-01
 1.054407e+00  9.455934e-01
 1.056162e+00  9.438384e-01
 1.057909e+00  9.420911e-01
 1.059646e+00  9.403537e-01
 1.061372e+00  9.386283e-01
 1.063083e+00  9.369170e-01
 1.064778e+00  9.352221e-01
 1.066454e+00  9.335456e-01
 1.068110e+00  9.318895e-01
 1.069744e+00  9.302561e-01
 1.071353e+00  9.286472e-01
 1.072935e+00  9.270649e-01
 1.074489e+00  9.255112e-01
 1.076012e+00  9.239880e-01
 1.077503e+00  9.224972e-01
 1.078959e+00  9.210407e-01
 1.080380e+00  9.196203e-01
 1.081762e+00  9.182377e-01
 1.083105e+00  9.168947e-01
 1.084407e+00  9.155929e-01
 1.085666e+00  9.143340e-01
 1.086880e+00  9.131196e-01
 1.088049e+00  9.119511e-01
 1.089170e+00  9.108299e-01
 1.090242e+00  9.097576e-01
 1.091265e+00  9.087355e-01
 1.092235e+00  9.077647e-01
 1.093153e+00  9.068466e-01
 1.094018e+00  9.059822e-01
 1.094827e+00  9.051726e-01
 1.095581e+00  9.044189e-01
 1.096278e+00  9.037220e-01
 1.096917e+00  9.030828e-01
 1.097498e+00  9.025020e-01
 1.098020e+00  9.019804e-01
 1.098481e+00  9.015186e-01
 1.098883e+00  9.011172e-01
 1.099223e+00  9.007767e-01
 1.099502e+00  9.004976e-01
 1.099720e+00  9.002801e-01
 1.099875e+00  9.001245e-01
 1.099969e+00  9.000311e-01
 1.100000e+00  9.000000e-01
 1.000000e+00  1.000000e+00
 1.000031e+00  9.999689e-01
 1.000125e+00  9.998755e-01
 1.000280e+00  9.997199e-01
 1.000498e+00  9.995024e-01
 1.000777e+00  9.992233e-01
 1.001117e+00  9.988828e-01
 1.001519e+00  9.984814e-01
 1.001980e+00  9.980196e-01
 1.002502e+00  9.974980e-01
 1.003083e+00  9.969172e-01
 1.003722e+00  9.962780e-01
 1.004419e+00  9.955811e-01
 1.005173e+00  9.948274e-01
 1.005982e+00  9.940178e-01
 1.006847e+00  9.931534e-01
 1.007765e+00  9.922353e-01
 1.008735e+00  9.912645e-01
 1.009758e+00  9.902424e-01
 1.010830e+00  9.891701e-01
 1.011951e+00  9.880489e-01
 1.013120e+00  9.868804e-01
 1.014334e+00  9.856660e-01
 1.015593e+00  9.844071e-01
 1.016895e+00  9.831053e-01
 1.018238e+00  9.817623e-01
 1.019620e+00  9.803797e-01
 1.021041e+00  9.789593e-01
 1.022497e+00  9.775028e-01
 1.023988e+00  9.760120e-01
 1.025511e+00  9.744888e-01
 1.027065e+00  9.729351e-01
 1.028647e+00  9.713528e-01
 1.030256e+00  9.697439e-01
 1.031890e+00  9.681105e-01
 1.033546e+00  9.664544e-01
 1.035222e+00  9.647779e-01
 1.036917e+00  9.630830e-01
 1.038628e+00  9.613717e-01
 1.040354e+00  9.596463e-01
 1.042091e+00  9.579089e-01
 1.043838e+00  9.561616e-01
 1.045593e+00  9.544066e-01
 1.047354e+00  9.526462e-01
 1.049118e+00  9.508824e-01
 1.050882e+00  9.491176e-01
 1.052646e+00  9.473538e-01
 1.054407e+00  9.455934e-01
 1.056162e+00  9.438384e-01
 1.057909e+00  9.420911e-01
 1.059646e+00  9.403537e-01
 1.061372e+00  9.386283e-01
 1.063083e+00  9.369170e-01
 1.064778e+00  9.352221e-01
 1.066454e+00  9.335456e-01
 1.068110e+00  9.318895e-01
 1.069744e+00  9.302561e-01
 1.071353e+00  9.286472e-01
 1.072935e+00  9.270649e-01
 1.074489e+00  9.255112e-01
 1.076012e+00  9.239880e-01
 1.077503e+00  9.224972e-01
 1.078959e+00  9.210407e-01
 1.080380e+00  9.196203e-01
 1.081762e+00  9.182377e-01
 1.083105e+00  9.168947e-01
 1.084407e+00  9.155929e-01
 1.085666e+00  9.143340e-01
 1.086880e+00  9.131196e-01
 1.088049e+00  9.119511e-01
 1.089170e+00  9.108299e-01
 1.090242e+00  9.097576e-01
 1.091265e+00  9.087355e-01
 1.092235e+00  9.077647e-01
 1.093153e+00  9.068466e-01
 1.094018e+00  9.059822e-01
 1.094827e+00  9.051726e-01
 1.095581e+00  9.044189e-01
 1.096278e+00  9.037220e-01
 1.096917e+00  9.030828e-01
 1.097498e+00  9.025020e-01
 1.098020e+00  9.019804e-01
 1.098481e+00  9.015186e-01
 1.098883e+00  9.011172e-01
 1.099223e+00  9.007767e-01
 1.099502e+00  9.004976e-01
 1.099720e+00  9.002801e-01
 1.099875e+00  9.001245e-01
 1.099969e+00  9.000311e-01
 1.100000e+00  9.000000e-01
 1.000000e+00  1.000000e+00
 1.000031e+00  9.999689e-01
 1.000125e+00  9.998755e-01
 1.000280e+00  9.997199e-01
 1.000498e+00  9.995024e-01
 1.000777e+00  9.992233e-01
 1.001117e+00  9.988828e-01
 1.001519e+00  9.984814e-01
 1.001980e+00  9.980196e-01
 1.002502e+00  9.974980e-01
 1.003083e+00  9.969172e-01
 1.003722e+00  9.962780e-01
 1.004419e+00  9.955811e-01
 1.005173e+00  9.948274e-01
 1.005982e+00  9.940178e-01
 1.006847e+00  9.931534e-01
 1.007765e+00  9.922353e-01
 1.008735e+00  9.912645e-01
 1.009758e+00  9.902424e-01
 1.010830e+00  9.891701e-01
 1.011951e+00  9.880489e-01
 1.013120e+00  9.868804e-01
 1.014334e+00  9.856660e-01
 1.015593e+00  9.844071e-01
 1.016895e+00  9.831053e-01
 1.018238e+00  9.817623e-01
 1.019620e+00  9.803797e-01
 1.021041e+00  9.789593e-01
 1.022497e+00  9.775028e-01
 1.023988e+00  9.760120e-01
 1.025511e+00  9.744888e-01
 1.027065e+00  9.729351e-01
 1.028647e+00  9.713528e-01
 1.030256e+00  9.697439e-01
 1.031890e+00  9.681105e-01
 1.033546e+00  9.664544e-01
 1.035222e+00  9.647779e-01
 1.036917e+00  9.630830e-01
 1.038628e+00  9.613717e-01
 1.040354e+00  9.596463e-01
 1.042091e+00  9.579089e-01
 1.043838e+00  9.561616e-01
 1.045593e+00  9.544066e-01
 1.047354e+00  9.526462e-01
 1.049118e+00  9.508824e-01
 1.050882e+00  9.491176e-01
 1.052646e+00  9.473538e-01
 1.054407e+00  9.455934e-01
 1.056162e+00  9.438384e-01
 1.057909e+00  9.420911e-01
 1.059646e+00  9.403537e-01
 1.061372e+00  9.386283e-01
 1.063083e+00  9.369170e-01
 1.064778e+00  9.352221e-01
 1.066454e+00  9.335456e-01
 1.068110e+00  9.318895e-01
 1.069744e+00  9.302561e-01
 1.071353e+00  9.286472e-01
 1.072935e+00  9.270649e-01
 1.074489e+00  9.255112e-01
 1.076012e+00  9.239880e-01
 1.077503e+00  9.224972e-01
 1.078959e+00  9.210407e-01
 1.080380e+00  9.196203e-01
 1.081762e+00  9.182377e-01
 1.083105e+00  9.168947e-01
 1.084407e+00  9.155929e-01
 1.085666e+00  9.143340e-01
 1.086880e+00  9.131196e-01
 1.088049e+00  9.119511e-01
 1.089170e+00  9.108299e-01
 1.090242e+00  9.097576e-01
 1.091265e+00  9.087355e-01
 1.092235e+00  9.077647e-01
 1.093153e+00  9.068466e-01
 1.094018e+00  9.059822e-01
 1.094827e+00  9.051726e-01
 1.095581e+00  9.044189e-01
 1.096278e+00  9.037220e-01
 1.096917e+00  9.030828e-01
 1.097498e+00  9.025020e-01
 1.098020e+00  9.019804e-01
 1.098481e+00  9.015186e-01
 1.098883e+00  9.011172e-01
 1.099223e+00  9.007767e-01
 1.099502e+00  9.004976e-01
 1.099720e+00  9.002801e-01
 1.099875e+00  9.001245e-01
 1.099969e+00  9.000311e-01
 1.100000e+00  9.000000e-01
 1.000000e+00  1.000000e+00
 1.000031e+00  9.999689e-01
 1.000125e+00  9.998755e-01
 1.000280e+00  9.997199e-01
 1.000498e+00  9.995024e-01
 1.000777e+00  9.992233e-01
 1.001117e+00  9.988828e-01
 1.001519e+00  9.984814e-01
 1.001980e+00  9.980196e-01
 1.002502e+00  9.974980e-01
 1.003083e+00  9.969172e-01
 1.003722e+00  9.962780e-01
 1.004419e+00  9.955811e-01
 1.005173e+00  9.948274e-01
 1.005982e+00  9.940178e-01
 1.006847e+00  9.931534e-01
 1.007765e+00  9.922353e-01
 1.008735e+00  9.912645e-01
 1.009758e+00  9.902424e-01
 1.010830e+00  9.891701e-01
 1.011951e+00  9.880489e-01
 1.013120e+00  9.868804e-01
 1.014334e+00  9.856660e-01
 1.015593e+00  9.844071e-01
 1.016895e+00  9.831053e-01
 1.018238e+00  9.817623e-01
 1.019620e+00  9.803797e-01
 1.021041e+00  9.789593e-01
 1.022497e+00  9.775028e-01
 1.023988e+00  9.760120e-01
 1.025511e+00  9.744888e-01
 1.027065e+00  9.729351e-01
 1.028647e+00  9.713528e-01
 1.030256e+00  9.697439e-01
 1.031890e+00  9.681105e-01
 1.033546e+00  9.664544e-01
 1.035222e+00  9.647779e-01
 1.036917e+00  9.630830e-01
 1.038628e+00  9.613717e-01
 1.040354e+00  9.596463e-01
 1.042091e+00  9.579089e-01
 1.043838e+00  9.561616e-01
 1.045593e+00  9.544066e-01
 1.047354e+00  9.526462e-01
 1.049118e+00  9.508824e-01
 1.050882e+00  9.491176e-01
 1.052646e+00  9.473538e-01
 1.054407e+00  9.455934e-01
 1.056162e+00  9.438384e-01
 1.057909e+00  9.420911e-01
 1.059646e+00  9.403537e-01
 1.061372e+00  9.386283e-01
 1.063083e+00  9.369170e-01
 1.064778e+00  9.352221e-01
 1.066454e+00  9.335456e-01
 1.068110e+00  9.318895e-01
 1.069744e+00  9.302561e-01
 1.071353e+00  9.286472e-01
 1.072935e+00  9.270649e-01
 1.074489e+00  9.255112e-01
 1.076012e+00  9.239880e-01
 1.077503e+00  9.224972e-01
 1.078959e+00  9.210407e-01
 1.080380e+00  9.196203e-01
 1.081762e+00  9.182377e-01
 1.083105e+00  9.168947e-01
 1.084407e+00  9.155929e-01
 1.085666e+00  9.143340e-01
 1.086880e+00  9.131196e-01
 1.088049e+00  9.119511e-01
 1.089170e+00  9.108299e-01
 1.090242e+00  9.097576e-01
 1.091265e+00  9.087355e-01
 1.092235e+00  9.077647e-01
 1.093153e+00  9.068466e-01
 1.094018e+00  9.059822e-01
 1.094827e+00  9.051726e-01
 1.095581e+00  9.044189e-01
 1.096278e+00  9.037220e-01
 1.096917e+00  9.030828e-01
 1.097498e+00  9.025020e-01
 1.098020e+00  9.019804e-01
 1.098481e+00  9.015186e-01
 1.098883e+00  9.011172e-01
 1.099223e+00  9.007767e-01
 1.099502e+00  9.004976e-01
 1.099720e+00  9.002801e-01
 1.099875e+00  9.001245e-01
 1.099969e+00  9.000311e-01
 1.100000e+00  9.000000e-01
 1.000000e+00  1.000000e+00
 1.000031e+00  9.999689e-01
 1.000125e+00  9.998755e-01
 1.000280e+00  9.997199e-01
 1.000498e+00  9.995024e-01
 1.000777e+00  9.992233e-01
 1.001117e+00  9.988828e-01
 1.001519e+00  9.984814e-01
 1.001980e+00  9.980196e-01
 1.002502e+00  9.974980e-01
 1.003083e+00  9.969172e-01
 1.003722e+00  9.962780e-01
 1.004419e+00  9.955811e-01
 1.005173e+00  9.948274e-01
 1.005982e+00  9.940178e-01
 1.006847e+00  9.931534e-01
 1.007765e+00  9.922353e-01
 1.008735e+00  9.912645e-01
 1.009758e+00  9.902424e-01
 1.010830e+00  9.891701e-01
 1.011951e+00  9.880489e-01
 1.013120e+00  9.868804e-01
 1.014334e+00  9.856660e-01
 1.015593e+00  9.844071e-01
 1.016895e+00  9.831053e-01
 1.018238e+00  9.817623e-01
 1.019620e+00  9.803797e-01
 1.021041e+00  9.789593e-01
 1.022497e+00  9.775028e-01
 1.023988e+00  9.760120e-01
 1.025511e+00  9.744888e-01
 1.027065e+00  9.729351e-01
 1.028647e+00  9.713528e-01
 1.030256e+00  9.697439e-01
 1.031890e+00  9.681105e-01
 1.033546e+00  9.664544e-01
 1.035222e+00  9.647779e-01
 1.036917e+00  9.630830e-01
 1.038628e+00  9.613717e-01
 1.040354e+00  9.596463e-01
 1.042091e+00  9.579089e-01
 1.043838e+00  9.561616e-01
 1.045593e+00  9.544066e-01
 1.047354e+00  9.526462e-01
 1.049118e+00  9.508824e-01
 1.050882e+00  9.491176e-01
 1.052646e+00  9.473538e-01
 1.054407e+00  9.455934e-01
 1.056162e+00  9.438384e-01
 1.057909e+00  9.420911e-01
 1.059646e+00  9.403537e-01
 1.061372e+00  9.386283e-01
 1.063083e+00  9.369170e-01
 1.064778e+00  9.352221e-01
 1.066454e+00  9.335456e-01
 1.068110e+00  9.318895e-01
 1.069744e+00  9.302561e-01
 1.071353e+00  9.286472e-01
 1.072935e+00  9.270649e-01
 1.074489e+00  9.255112e-01
 1.076012e+00  9.239880e-01
 1.077503e+00  9.224972e-01
 1.078959e+00  9.210407e-01
 1.080380e+00  9.196203e-01
 1.081762e+00  9.182377e-01
 1.083105e+00  9.168947e-01
 1.084407e+00  9.155929e-01
 1.085666e+00  9.143340e-01
 1.086880e+00  9.131196e-01
 1.088049e+00  9.119511e-01
 1.089170e+00  9.108299e-01
 1.090242e+00  9.097576e-01
 1.091265e+00  9.087355e-01
 1.092235e+00  9.077647e-01
 1.093153e+00  9.068466e-01
 1.094018e+00  9.059822e-01
 1.094827e+00  9.051726e-01
 1.095581e+00  9.044189e-01
 1.096278e+00  9.037220e-01
 1.096917e+00  9.030828e-01
 1.097498e+00  9.025020e-01
 1.098020e+00  9.019804e-01
 1.098481e+00  9.015186e-01
 1.098883e+00  9.011172e-01
 1.099223e+00  9.007767e-01
 1.099502e+00  9.004976e-01
 1.099720e+00  9.002801e-01
 1.099875e+00  9.001245e-01
 1.099969e+00  9.000311e-01
 1.100000e+00  9.000000e-01
 1.000000e+00  1.000000e+00
 1.000031e+00  9.999689e-01
 1.000125e+00  9.998755e-01
 1.000280e+00  9.997199e-01
 1.000498e+00  9.995024e-01
 1.000777e+00  9.992233e-01
 1.001117e+00  9.988828e-01
 1.001519e+00  9.984814e-01
 1.001980e+00  9.980196e-01
 1.002502e+00  9.974980e-01
 1.003083e+00  9.969172e-01
 1.003722e+00  9.962780e-01
 1.004419e+00  9.955811e-01
 1.005173e+00  9.948274e-01
 1.005982e+00  9.940178e-01
 1.006847e+00  9.931534e-01
 1.007765e+00  9.922353e-01
 1.008735e+00  9.912645e-01
 1.009758e+00  9.902424e-01
 1.010830e+00  9.891701e-01
 1.011951e+00  9.880489e-01
 1.013120e+00  9.868804e-01
 1.014334e+00  9.856660e-01
 1.015593e+00  9.844071e-01
 1.016895e+00  9.831053e-01
 1.018238e+00  9.817623e-01
 1.019620e+00  9.803797e-01
 1.021041e+00  9.789593e-01
 1.022497e+00  9.775028e-01
 1.023988e+00  9.760120e-01
 1.025511e+00  9.744888e-01
 1.027065e+00  9.729351e-01
 1.028647e+00  9.713528e-01
 1.030256e+00  9.697439e-01
 1.031890e+00  9.681105e-01
 1.033546e+00  9.664544e-01
 1.035222e+00  9.647779e-01
 1.036917e+00  9.630830e-01
 1.038628e+00  9.613717e-01
 1.040354e+00  9.596463e-01
 1.042091e+00  9.579089e-01
 1.043838e+00  9.561616e-01
 1.045593e+00  9.544066e-01
 1.047354e+00  9.526462e-01
 1.049118e+00  9.508824e-01
 1.050882e+00  9.491176e-01
 1.052646e+00  9.473538e-01
 1.054407e+00  9.455934e-01
 1.056162e+00  9.438384e-01
 1.057909e+00  9.420911e-01
 1.059646e+00  9.403537e-01
 1.061372e+00  9.386283e-01
 1.063083e+00  9.369170e-01
 1.064778e+00  9.352221e-01
 1.066454e+00  9.335456e-01
 1.068110e+00  9.318895e-01
 1.069744e+00  9.302561e-01
 1.071353e+00  9.286472e-01
 1.072935e+00  9.270649e-01
 1.074489e+00  9.255112e-01
 1.076012e+00  9.239880e-01
 1.077503e+00  9.224972e-01
 1.078959e+00  9.210407e-01
 1.080380e+00  9.196203e-01
 1.081762e+00  9.182377e-01
 1.083105e+00  9.168947e-01
 1.084407e+00  9.155929e-01
 1.085666e+00  9.143340e-01
 1.086880e+00  9.131196e-01
 1.088049e+00  9.119511e-01
 1.089170e+00  9.108299e-01
 1.090242e+00  9.097576e-01
 1.091265e+00  9.087355e-01
 1.092235e+00  9.077647e-01
 1.093153e+00  9.068466e-01
 1.094018e+00  9.059822e-01
 1.094827e+00  9.051726e-01
 1.095581e+00  9.044189e-01
 1.096278e+00  9.037220e-01
 1.096917e+00  9.030828e-01
 1.097498e+00  9.025020e-01
 1.098020e+00  9.019804e-01
 1.098481e+00  9.015186e-01
 1.098883e+00  9.011172e-01
 1.099223e+00  9.007767e-01
 1.099502e+00  9.004976e-01
 1.099720e+00  9.002801e-01
 1.099875e+00  9.001245e-01
 1.099969e+00  9.000311e-01
 1.100000e+00  9.000000e-01
 1.000000e+00  1.000000e+00
 1.000031e+00  9.999689e-01
 1.000125e+00  9.998755e-01
 1.000280e+00  9.997199e-01
 1.000498e+00  9.995024e-01
 1.000777e+00  9.992233e-01
 1.001117e+00  9.988828e-01
 1.001519e+00  9.984814e-01
 1.001980e+00  9.980196e-01
 1.002502e+00  9.974980e-01
 1.003083e+00  9.969172e-01
 1.003722e+00  9.962780e-01
 1.004419e+00  9.955811e-01
 1.005173e+00  9.948274e-01
 1.005982e+00  9.940178e-01
 1.006847e+00  9.931534e-01
 1.007765e+00  9.922353e-01
 1.008735e+00  9.912645e-01
 1.009758e+00  9.902424e-01
 1.010830e+00  9.891701e-01
 1.011951e+00  9.880489e-01
 1.013120e+00  9.868804e-01
 1.014334e+00  9.856660e-01
 1.015593e+00  9.844071e-01
 1.016895e+00  9.831053e-01
 1.018238e+00  9.817623e-01
 1.019620e+00  9.803797e-01
 1.021041e+00  9.789593e-01
 1.022497e+00  9.775028e-01
 1.023988e+00  9.760120e-01
 1.025511e+00  9.744888e-01
 1.027065e+00  9.729351e-01
 1.028647e+00  9.713528e-01
 1.030256e+00  9.697439e-01
 1.031890e+00  9.681105e-01
 1.033546e+00  9.664544e-01
 1.035222e+00  9.647779e-01
 1.036917e+00  9.630830e-01
 1.038628e+00  9.613717e-01
 1.040354e+00  9.596463e-01
 1.042091e+00  9.579089e-01
 1.043838e+00  9.561616e-01
 1.045593e+00  9.544066e-01
 1.047354e+00  9.526462e-01
 1.049118e+00  9.508824e-01
 1.050882e+00  9.491176e-01
 1.052646e+00  9.473538e-01
 1.054407e+00  9.455934e-01
 1.056162e+00  9.438384e-01
 1.057909e+00  9.420911e-01
 1.059646e+00  9.403537e-01
 1.061372e+00  9.386283e-01
 1.063083e+00  9.369170e-01
 1.064778e+00  9.352221e-01
 1.066454e+00  9.335456e-01
 1.068110e+00  9.318895e-01
 1.069744e+00  9.302561e-01
 1.071353e+00  9.286472e-01
 1.072935e+00  9.270649e-01
 1.074489e+00  9.255112e-01
 1.076012e+00  9.239880e-01
 1.077503e+00  9.224972e-01
 1.078959e+00  9.210407e-01
 1.080380e+00  9.196203e-01
 1.081762e+00  9.182377e-01
 1.083105e+00  9.168947e-01
 1.084407e+00  9.155929e-01
 1.085666e+00  9.143340e-01
 1.086880e+00  9.131196e-01
 1.088049e+00  9.119511e-01
 1.089170e+00  9.108299e-01
 1.090242e+00  9.097576e-01
 1.091265e+00  9.087355e-01
 1.092235e+00  9.077647e-01
 1.093153e+00  9.068466e-01
 1.094018e+00  9.059822e-01
 1.094827e+00  9.051726e-01
 1.095581e+00  9.044189e-01
 1.096278e+00  9.037220e-01
 1.096917e+00  9.030828e-01
 1.097498e+00  9.025020e-01
 1.098020e+00  9.019804e-01
 1.098481e+00  9.015186e-01
 1.098883e+00  9.011172e-01
 1.099223e+00  9.007767e-01
 1.099502e+00  9.004976e-01
 1.099720e+00  9.002801e-01
 1.099875e+00  9.001245e-01
 1.099969e+00  9.000311e-01
 1.100000e+00  9.000000e-01
 1.000000e+00  1.000000e+00
 1.000031e+00  9.999689e-01
 1.000125e+00  9.998755e-01
 1.000280e+00  9.997199e-01
 1.000498e+00  9.995024e-01
 1.000777e+00  9.992233e-01
 1.001117e+00  9.988828e-01
 1.001519e+00  9.984814e-01
 1.001980e+00  9.980196e-01
 1.002502e+00  9.974980e-01
 1.003083e+00  9.969172e-01
 1.003722e+00  9.962780e-01
 1.004419e+00  9.955811e-01
 1.005173e+00  9.948274e-01
 1.005982e+00  9.940178e-01
 1.006847e+00  9.931534e-01
 1.007765e+00  9.922353e-01
 1.008735e+00  9.912645e-01
 1.009758e+00  9.902424e-01
 1.010830e+00  9.891701e-01
 1.011951e+00  9.880489e-01
 1.013120e+00  9.868804e-01
 1.014334e+00  9.856660e-01
 1.015593e+00  9.844071e-01
 1.016895e+00  9.831053e-01
 1.018238e+00  9.817623e-01
 1.019620e+00  9.803797e-01
 1.021041e+00  9.789593e-01
 1.022497e+00  9.775028e-01
 1.023988e+00  9.760120e-01
 1.025511e+00  9.744888e-01
 1.027065e+00  9.729351e-01
 1.028647e+00  9.713528e-01
 1.030256e+00  9.697439e-01
 1.031890e+00  9.681105e-01
 1.033546e+00  9.664544e-01
 1.035222e+00  9.647779e-01
 1.036917e+00  9.630830e-01
 1.038628e+00  9.613717e-01
 1.040354e+00  9.596463e-01
 1.042091e+00  9.579089e-01
 1.043838e+00  9.561616e-01
 1.045593e+00  9.544066e-01
 1.047354e+00  9.526462e-01
 1.049118e+00  9.508824e-01
 1.050882e+00  9.491176e-01
 1.052646e+00  9.473538e-01
 1.054407e+00  9.455934e-01
 1.056162e+00  9.438384e-01
 1.057909e+00  9.420911e-01
 1.059646e+00  9.403537e-01
 1.061372e+00  9.386283e-01
 1.063083e+00  9.369170e-01
 1.064778e+00  9.352221e-01
 1.066454e+00  9.335456e-01
 1.068110e+00  9.318895e-01
 1.069744e+00  9.302561e-01
 1.071353e+00  9.286472e-01
 1.072935e+00  9.270649e-01
 1.074489e+00  9.255112e-01
 1.076012e+00  9.239880e-01
 1.077503e+00  9.224972e-01
 1.078959e+00  9.210407e-01
 1.080380e+00  9.196203e-01
 1.081762e+00  9.182377e-01
 1.083105e+00  9.168947e-01
 1.084407e+00  9.155929e-01
 1.085666e+00  9.143340e-01
 1.086880e+00  9.131196e-01
 1.088049e+00  9.119511e-01
 1.089170e+00  9.108299e-01
 1.090242e+00  9.097576e-01
 1.091265e+00  9.087355e-01
 1.092235e+00  9.077647e-01
 1.093153e+00  9.068466e-01
 1.094018e+00  9.059822e-01
 1.094827e+00  9.051726e-01
 1.095581e+00  9.044189e-01
 1.096278e+00  9.037220e-01
 1.096917e+00  9.030828e-01
 1.097498e+00  9.025020e-01
 1.098020e+00  9.019804e-01
 1.098481e+00  9.015186e-01
 1.098883e+00  9.011172e-01
 1.099223e+00  9.007767e-01
 1.099502e+00  9.004976e-01
 1.099720e+00  9.002801e-01
 1.099875e+00  9.001245e-01
 1.099969e+00  9.000311e-01
 1.100000e+00  9.000000e-01
 1.000000e+00  1.000000e+00
 1.000031e+00  9.999689e-01
 1.000125e+00  9.998755e-01
 1.000280e+00  9.997199e-01
 1.000498e+00  9.995024e-01
 1.000777e+00  9.992233e-01
 1.001117e+00  9.988828e-01
 1.001519e+00  9.984814e-01
 1.001980e+00  9.980196e-01
 1.002502e+00  9.974980e-01
 1.003083e+00  9.969172e-01
 1.003722e+00  9.962780e-01
 1.004419e+00  9.955811e-01
 1.005173e+00  9.948274e-01
 1.005982e+00  9.940178e-01
 1.006847e+00  9.931534e-01
 1.007765e+00  9.922353e-01
 1.008735e+00  9.912645e-01
 1.009758e+00  9.902424e-01
 1.010830e+00  9.891701e-01
 1.011951e+00  9.880489e-01
 1.013120e+00  9.868804e-01
 1.014334e+00  9.856660e-01
 1.015593e+00  9.844071e-01
 1.016895e+00  9.831053e-01
 1.018238e+00  9.817623e-01
 1.019620e+00  9.803797e-01
 1.021041e+00  9.789593e-01
 1.022497e+00  9.775028e-01
 1.023988e+00  9.760120e-01
 1.025511e+00  9.744888e-01
 1.027065e+00  9.729351e-01
 1.028647e+00  9.713528e-01
 1.030256e+00  9.697439e-01
 1.031890e+00  9.681105e-01
 1.033546e+00  9.664544e-01
 1.035222e+00  9.647779e-01
 1.036917e+00  9.630830e-01
 1.038628e+00  9.613717e-01
 1.040354e+00  9.596463e-01
 1.042091e+00  9.579089e-01
 1.043838e+00  9.561616e-01
 1.045593e+00  9.544066e-01
 1.047354e+00  9.526462e-01
 1.049118e+00  9.508824e-01
 1.050882e+00  9.491176e-01
 1.052646e+00  9.473538e-01
 1.054407e+00  9.455934e-01
 1.056162e+00  9.438384e-01
 1.057909e+00  9.420911e-01
 1.059646e+00  9.403537e-01
 1.061372e+00  9.386283e-01
 1.063083e+00  9.369170e-01
 1.064778e+00  9.352221e-01
 1.066454e+00  9.335456e-01
 1.068110e+00  9.318895e-01
 1.069744e+00  9.302561e-01
 1.071353e+00  9.286472e-01
 1.072935e+00  9.270649e-01
 1.074489e+00  9.255112e-01
 1.076012e+00  9.239880e-01
 1.077503e+00  9.224972e-01
 1.078959e+00  9.210407e-01
 1.080380e+00  9.196203e-01
 1.081762e+00  9.182377e-01
 1.083105e+00  9.168947e-01
 1.084407e+00  9.155929e-01
 1.085666e+00  9.143340e-01
 1.086880e+00  9.131196e-01
 1.088049e+00  9.119511e-01
 1.089170e+00  9.108299e-01
 1.090242e+00  9.097576e-01
 1.091265e+00  9.087355e-01
 1.092235e+00  9.077647e-01
 1.093153e+00  9.068466e-01
 1.094018e+00  9.059822e-01
 1.094827e+00  9.051726e-01
 1.095581e+00  9.044189e-01
 1.096278e+00  9.037220e-01
 1.096917e+00  9.030828e-01
 1.097498e+00  9.025020e-01
 1.098020e+00  9.019804e-01
 1.098481e+00  9.015186e-01
 1.098883e+00  9.011172e-01
 1.099223e+00  9.007767e-01
 1.099502e+00  9.004976e-01
 1.099720e+00  9.002801e-01
 1.099875e+00  9.001245e-01
 1.099969e+00  9.000311e-01
 1.100000e+00  9.000000e-01
 1.000000e+00  1.000000e+00
 1.000031e+00  9.999689e-01
 1.000125e+00  9.998755e-01
 1.000280e+00  9.997199e-01
 1.000498e+00  9.995024e-01
 1.000777e+00  9.992233e-01
 1.001117e+00  9.988828e-01
 1.001519e+00  9.984814e-01
 1.001980e+00  9.980196e-01
 1.002502e+00  9.974980e-01
 1.003083e+00  9.969172e-01
 1.003722e+00  9.962780e-01
 1.004419e+00  9.955811e-01
 1.005173e+00  9.948274e-01
 1.005982e+00  9.940178e-01
 1.006847e+00  9.931534e-01
 1.007765e+00  9.922353e-01
 1.008735e+00  9.912645e-01
 1.009758e+00  9.902424e-01
 1.010830e+00  9.891701e-01
 1.011951e+00  9.880489e-01
 1.013120e+00  9.868804e-01
 1.014334e+00  9.856660e-01
 1.015593e+00  9.844071e-01
 1.016895e+00  9.831053e-01
 1.018238e+00  9.817623e-01
 1.019620e+00  9.803797e-01
 1.021041e+00  9.789593e-01
 1.022497e+00  9.775028e-01
 1.023988e+00  9.760120e-01
 1.025511e+00  9.744888e-01
 1.027065e+00  9.729351e-01
 1.028647e+00  9.713528e-01
 1.030256e+00  9.697439e-01
 1.031890e+00  9.681105e-01
 1.033546e+00  9.664544e-01
 1.035222e+00  9.647779e-01
 1.036917e+00  9.630830e-01
 1.038628e+00  9.613717e-01
 1.040354e+00  9.596463e-01
 1.042091e+00  9.579089e-01
 1.043838e+00  9.561616e-01
 1.045593e+00  9.544066e-01
 1.047354e+00  9.526462e-01
 1.049118e+00  9.508824e-01
 1.050882e+00  9.491176e-01
 1.052646e+00  9.473538e-01
 1.054407e+00  9.455934e-01
 1.056162e+00  9.438384e-01
 1.057909e+00  9.420911e-01
 1.059646e+00  9.403537e-01
 1.061372e+00  9.386283e-01
 1.063083e+00  9.369170e-01
 1.064778e+00  9.352221e-01
 1.066454e+00  9.335456e-01
 1.068110e+00  9.318895e-01
 1.069744e+00  9.302561e-01
 1.071353e+00  9.286472e-01
 1.072935e+00  9.270649e-01
 1.074489e+00  9.255112e-01
 1.076012e+00  9.239880e-01
 1.077503e+00  9.224972e-01
 1.078959e+00  9.210407e-01
 1.080380e+00  9.196203e-01
 1.081762e+00  9.182377e-01
 1.083105e+00  9.168947e-01
 1.084407e+00  9.155929e-01
 1.085666e+00  9.143340e-01
 1.086880e+00  9.131196e-01
 1.088049e+00  9.119511e-01
 1.089170e+00  9.108299e-01
 1.090242e+00  9.097576e-01
 1.091265e+00  9.087355e-01
 1.092235e+00  9.077647e-01
 1.093153e+00  9.068466e-01
 1.094018e+00  9.059822e-01
 1.094827e+00  9.051726e-01
 1.095581e+00  9.044189e-01
 1.096278e+00  9.037220e-01
 1.096917e+00  9.030828e-01
 1.097498e+00  9.025020e-01
 1.098020e+00  9.019804e-01
 1.098481e+00  9.015186e-01
 1.098883e+00  9.011172e-01
 1.099223e+00  9.007767e-01
 1.099502e+00  9.004976e-01
 1.099720e+00  9.002801e-01
 1.099875e+00  9.001245e-01
 1.099969e+00  9.000311e-01
 1.100000e+00  9.000000e-01
 1.000000e+00  1.000000e+00
 1.000031e+00  9.999689e-01
 1.000125e+00  9.998755e-01
 1.000280e+00  9.997199e-01
 1.000498e+00  9.995024e-01
 1.000777e+00  9.992233e-01
 1.001117e+00  9.988828e-01
 1.001519e+00  9.984814e-01
 1.001980e+00  9.980196e-01
 1.002502e+00  9.974980e-01
 1.003083e+00  9.969172e-01
 1.003722e+00  9.962780e-01
 1.004419e+00  9.955811e-01
 1.005173e+00  9.948274e-01
 1.005982e+00  9.940178e-01
 1.006847e+00  9.931534e-01
 1.007765e+00  9.922353e-01
 1.008735e+00  9.912645e-01
 1.009758e+00  9.902424e-01
 1.010830e+00  9.891701e-01
 1.011951e+00  9.880489e-01
 1.013120e+00  9.868804e-01
 1.014334e+00  9.856660e-01
 1.015593e+00  9.844071e-01
 1.016895e+00  9.831053e-01
 1.018238e+00  9.817623e-01
 1.019620e+00  9.803797e-01
 1.021041e+00  9.789593e-01
 1.022497e+00  9.775028e-01
 1.023988e+00  9.760120e-01
 1.025511e+00  9.744888e-01
 1.027065e+00  9.729351e-01
 1.028647e+00  9.713528e-01
 1.030256e+00  9.697439e-01
 1.031890e+00  9.681105e-01
 1.033546e+00  9.664544e-01
 1.035222e+00  9.647779e-01
 1.036917e+00  9.630830e-01
 1.038628e+00  9.613717e-01
 1.040354e+00  9.596463e-01
 1.042091e+00  9.579089e-01
 1.043838e+00  9.561616e-01
 1.045593e+00  9.544066e-01
 1.047354e+00  9.526462e-01
 1.049118e+00  9.508824e-01
 1.050882e+00  9.491176e-01
 1.052646e+00  9.473538e-01
 1.054407e+00  9.455934e-01
 1.056162e+00  9.438384e-01
 1.057909e+00  9.420911e-01
 1.059646e+00  9.403537e-01
 1.061372e+00  9.386283e-01
 1.063083e+00  9.369170e-01
 1.064778e+00  9.352221e-01
 1.066454e+00  9.335456e-01
 1.068110e+00  9.318895e-01
 1.069744e+00  9.302561e-01
 1.071353e+00  9.286472e-01
 1.072935e+00  9.270649e-01
 1.074489e+00  9.255112e-01
 1.076012e+00  9.239880e-01
 1.077503e+00  9.224972e-01
 1.078959e+00  9.210407e-01
 1.080380e+00  9.196203e-01
 1.081762e+00  9.182377e-01
 1.083105e+00  9.168947e-01
 1.084407e+00  9.155929e-01
 1.085666e+00  9.143340e-01
 1.086880e+00  9.131196e-01
 1.088049e+00  9.119511e-01
 1.089170e+00  9.108299e-01
 1.090242e+00  9.097576e-01
 1.091265e+00  9.087355e-01
 1.092235e+00  9.077647e-01
 1.093153e+00  9.068466e-01
 1.094018e+00  9.059822e-01
 1.094827e+00  9.051726e-01
 1.095581e+00  9.044189e-01
 1.096278e+00  9.037220e-01
 1.096917e+00  9.030828e-01
 1.097498e+00  9.025020e-01
 1.098020e+00  9.019804e-01
 1.098481e+00  9.015186e-01
 1.098883e+00  9.011172e-01
 1.099223e+00  9.007767e-01
 1.099502e+00  9.004976e-01
 1.099720e+00  9.002801e-01
 1.099875e+00  9.001245e-01
 1.099969e+00  9.000311e-01
 1.100000e+00  9.000000e-01
 1.000000e+00  1.000000e+00
 1.000031e+00  9.999689e-01
 1.000125e+00  9.998755e-01
 1.000280e+00  9.997199e-01
 1.000498e+00  9.995024e-01
 1.000777e+00  9.992233e-01
 1.001117e+00  9.988828e-01
 1.001519e+00  9.984814e-01
 1.001980e+00  9.980196e-01
 1.002502e+00  9.974980e-01
 1.003083e+00  9.969172e-01
 1.003722e+00  9.962780e-01
 1.004419e+00  9.955811e-01
 1.005173e+00  9.948274e-01
 1.005982e+00  9.940178e-01
 1.006847e+00  9.931534e-01
 1.007765e+00  9.922353e-01
 1.008735e+00  9.912645e-01
 1.009758e+00  9.902424e-01
 1.010830e+00  9.891701e-01
 1.011951e+00  9.880489e-01
 1.013120e+00  9.868804e-01
 1.014334e+00  9.856660e-01
 1.015593e+00  9.844071e-01
 1.016895e+00  9.831053e-01
 1.018238e+00  9.817623e-01
 1.019620e+00  9.803797e-01
 1.021041e+00  9.789593e-01
 1.022497e+00  9.775028e-01
 1.023988e+00  9.760120e-01
 1.025511e+00  9.744888e-01
 1.027065e+00  9.729351e-01
 1.028647e+00  9.713528e-01
 1.030256e+00  9.697439e-01
 1.031890e+00  9.681105e-01
 1.033546e+00  9.664544e-01
 1.035222e+00  9.647779e-01
 1.036917e+00  9.630830e-01
 1.038628e+00  9.613717e-01
 1.040354e+00  9.596463e-01
 1.042091e+00  9.579089e-01
 1.043838e+00  9.561616e-01
 1.045593e+00  9.544066e-01
 1.047354e+00  9.526462e-01
 1.049118e+00  9.508824e-01
 1.050882e+00  9.491176e-01
 1.052646e+00  9.473538e-01
 1.054407e+00  9.455934e-01
 1.056162e+00  9.438384e-01
 1.057909e+00  9.420911e-01
 1.059646e+00  9.403537e-01
 1.061372e+00  9.386283e-01
 1.063083e+00  9.369170e-01
 1.064778e+00  9.352221e-01
 1.066454e+00  9.335456e-01
 1.068110e+00  9.318895e-01
 1.069744e+00  9.302561e-01
 1.071353e+00  9.286472e-01
 1.072935e+00  9.270649e-01
 1.074489e+00  9.255112e-01
 1.076012e+00  9.239880e-01
 1.077503e+00  9.224972e-01
 1.078959e+00  9.210407e-01
 1.080380e+00  9.196203e-01
 1.081762e+00  9.182377e-01
 1.083105e+00  9.168947e-01
 1.084407e+00  9.155929e-01
 1.085666e+00  9.143340e-01
 1.086880e+00  9.131196e-01
 1.088049e+00  9.119511e-01
 1.089170e+00  9.108299e-01
 1.090242e+00  9.097576e-01
 1.091265e+00  9.087355e-01
 1.092235e+00  9.077647e-01
 1.093153e+00  9.068466e-01
 1.094018e+00  9.059822e-01
 1.094827e+00  9.051726e-01
 1.095581e+00  9.044189e-01
 1.096278e+00  9.037220e-01
 1.096917e+00  9.030828e-01
 1.097498e+00  9.025020e-01
 1.098020e+00  9.019804e-01
 1.098481e+00  9.015186e-01
 1.098883e+00  9.011172e-01
 1.099223e+00  9.007767e-01
 1.099502e+00  9.004976e-01
 1.099720e+00  9.002801e-01
 1.099875e+00  9.001245e-01
 1.099969e+00  9.000311e-01
 1.100000e+00  9.000000e-01
 1.000000e+00  1.000000e+00
 1.000031e+00  9.999689e-01
 1.000125e+00  9.998755e-01
 1.000280e+00  9.997199e-01
 1.000498e+00  9.995024e-01
 1.000777e+00  9.992233e-01
 1.001117e+00  9.988828e-01
 1.001519e+00  9.984814e-01
 1.001980e+00  9.980196e-01
 1.002502e+00  9.974980e-01
 1.003083e+00  9.969172e-01
 1.003722e+00  9.962780e-01
 1.004419e+00  9.955811e-01
 1.005173e+00  9.948274e-01
 1.005982e+00  9.940178e-01
 1.006847e+00  9.931534e-01
 1.007765e+00  9.922353e-01
 1.008735e+00  9.912645e-01
 1.009758e+00  9.902424e-01
 1.010830e+00  9.891701e-01
 1.011951e+00  9.880489e-01
 1.013120e+00  9.868804e-01
 1.014334e+00  9.856660e-01
 1.015593e+00  9.844071e-01
 1.016895e+00  9.831053e-01
 1.018238e+00  9.817623e-01
 1.019620e+00  9.803797e-01
 1.021041e+00  9.789593e-01
 1.022497e+00  9.775028e-01
 1.023988e+00  9.760120e-01
 1.025511e+00  9.744888e-01
 1.027065e+00  9.729351e-01
 1.028647e+00  9.713528e-01
 1.030256e+00  9.697439e-01
 1.031890e+00  9.681105e-01
 1.033546e+00  9.664544e-01
 1.035222e+00  9.647779e-01
 1.036917e+00  9.630830e-01
 1.038628e+00  9.613717e-01
 1.040354e+00  9.596463e-01
 1.042091e+00  9.579089e-01
 1.043838e+00  9.561616e-01
 1.045593e+00  9.544066e-01
 1.047354e+00  9.526462e-01
 1.049118e+00  9.508824e-01
 1.050882e+00  9.491176e-01
 1.052646e+00  9.473538e-01
 1.054407e+00  9.455934e-01
 1.056162e+00  9.438384e-01
 1.057909e+00  9.420911e-01
 1.059646e+00  9.403537e-01
 1.061372e+00  9.386283e-01
 1.063083e+00  9.369170e-01
 1.064778e+00  9.352221e-01
 1.066454e+00  9.335456e-01
 1.068110e+00  9.318895e-01
 1.069744e+00  9.302561e-01
 1.071353e+00  9.286472e-01
 1.072935e+00  9.270649e-01
 1.074489e+00  9.255112e-01
 1.076012e+00  9.239880e-01
 1.077503e+00  9.224972e-01
 1.078959e+00  9.210407e-01
 1.080380e+00  9.196203e-01
 1.081762e+00  9.182377e-01
 1.083105e+00  9.168947e-01
 1.084407e+00  9.155929e-01
 1.085666e+00  9.143340e-01
 1.086880e+00  9.131196e-01
 1.088049e+00  9.119511e-01
 1.089170e+00  9.108299e-01
 1.090242e+00  9.097576e-01
 1.091265e+00  9.087355e-01
 1.092235e+00  9.077647e-01
 1.093153e+00  9.068466e-01
 1.094018e+00  9.059822e-01
 1.094827e+00  9.051726e-01
 1.095581e+00  9.044189e-01
 1.096278e+00  9.037220e-01
 1.096917e+00  9.030828e-01
 1.097498e+00  9.025020e-01
 1.098020e+00  9.019804e-01
 1.098481e+00  9.015186e-01
 1.098883e+00  9.011172e-01
 1.099223e+00  9.007767e-01
 1.099502e+00  9.004976e-01
 1.099720e+00  9.002801e-01
 1.099875e+00  9.001245e-01
 1.099969e+00  9.000311e-01
 1.100000e+00  9.000000e-01
 1.000000e+00  1.000000e+00
 1.000031e+00  9.999689e-01
 1.000125e+00  9.998755e-01
 1.000280e+00  9.997199e-01
 1.000498e+00  9.995024e-01
 1.000777e+00  9.992233e-01
 1.001117e+00  9.988828e-01
 1.001519e+00  9.984814e-01
 1.001980e+00  9.980196e-01
 1.002502e+00  9.974980e-01
 1.003083e+00  9.969172e-01
 1.003722e+00  9.962780e-01
 1.004419e+00  9.955811e-01
 1.005173e+00  9.948274e-01
 1.005982e+00  9.940178e-01
 1.006847e+00  9.931534e-01
 1.007765e+00  9.922353e-01
 1.008735e+00  9.912645e-01
 1.009758e+00  9.902424e-01
 1.010830e+00  9.891701e-01
 1.011951e+00  9.880489e-01
 1.013120e+00  9.868804e-01
 1.014334e+00  9.856660e-01
 1.015593e+00  9.844071e-01
 1.016895e+00  9.831053e-01
 1.018238e+00  9.817623e-01
 1.019620e+00  9.803797e-01
 1.021041e+00  9.789593e-01
 1.022497e+00  9.775028e-01
 1.023988e+00  9.760120e-01
 1.025511e+00  9.744888e-01
 1.027065e+00  9.729351e-01
 1.028647e+00  9.713528e-01
 1.030256e+00  9.697439e-01
 1.031890e+00  9.681105e-01
 1.033546e+00  9.664544e-01
 1.035222e+00  9.647779e-01
 1.036917e+00  9.630830e-01
 1.038628e+00  9.613717e-01
 1.040354e+00  9.596463e-01
 1.042091e+00  9.579089e-01
 1.043838e+00  9.561616e-01
 1.045593e+00  9.544066e-01
 1.047354e+00  9.526462e-01
 1.049118e+00  9.508824e-01
 1.050882e+00  9.491176e-01
 1.052646e+00  9.473538e-01
 1.054407e+00  9.455934e-01
 1.056162e+00  9.438384e-01
 1.057909e+00  9.420911e-01
 1.059646e+00  9.403537e-01
 1.061372e+00  9.386283e-01
 1.063083e+00  9.369170e-01
 1.064778e+00  9.352221e-01
 1.066454e+00  9.335456e-01
 1.068110e+00  9.318895e-01
 1.069744e+00  9.302561e-01
 1.071353e+00  9.286472e-01
 1.072935e+00  9.270649e-01
 1.074489e+00  9.255112e-01
 1.076012e+00  9.239880e-01
 1.077503e+00  9.224972e-01
 1.078959e+00  9.210407e-01
 1.080380e+00  9.196203e-01
 1.081762e+00  9.182377e-01
 1.083105e+00  9.168947e-01
 1.084407e+00  9.155929e-01
 1.085666e+00  9.143340e-01
 1.086880e+00  9.131196e-01
 1.088049e+00  9.119511e-01
 1.089170e+00  9.108299e-01
 1.090242e+00  9.097576e-01
 1.091265e+00  9.087355e-01
 1.092235e+00  9.077647e-01
 1.093153e+00  9.068466e-01
 1.094018e+00  9.059822e-01
 1.094827e+00  9.051726e-01
 1.095581e+00  9.044189e-01
 1.096278e+00  9.037220e-01
 1.096917e+00  9.030828e-01
 1.097498e+00  9.025020e-01
 1.098020e+00  9.019804e-01
 1.098481e+00  9.015186e-01
 1.098883e+00  9.011172e-01
 1.099223e+00  9.007767e-01
 1.099502e+00  9.004976e-01
 1.099720e+00  9.002801e-01
 1.099875e+00  9.001245e-01
 1.099969e+00  9.000311e-01
 1.100000e+00  9.000000e-01
 1.000000e+00  1.000000e+00
 1.000031e+00  9.999689e-01
 1.000125e+00  9.998755e-01
 1.000280e+00  9.997199e-01
 1.000498e+00  9.995024e-01
 1.000777e+00  9.992233e-01
 1.001117e+00  9.988828e-01
 1.001519e+00  9.984814e-01
 1.001980e+00  9.980196e-01
 1.002502e+00  9.974980e-01
 1.003083e+00  9.969172e-01
 1.003722e+00  9.962780e-01
 1.004419e+00  9.955811e-01
 1.005173e+00  9.948274e-01
 1.005982e+00  9.940178e-01
 1.006847e+00  9.931534e-01
 1.007765e+00  9.922353e-01
 1.008735e+00  9.912645e-01
 1.009758e+00  9.902424e-01
 1.010830e+00  9.891701e-01
 1.011951e+00  9.880489e-01
 1.013120e+00  9.868804e-01
 1.014334e+00  9.856660e-01
 1.015593e+00  9.844071e-01
 1.016895e+00  9.831053e-01
 1.018238e+00  9.817623e-01
 1.019620e+00  9.803797e-01
 1.021041e+00  9.789593e-01
 1.022497e+00  9.775028e-01
 1.023988e+00  9.760120e-01
 1.025511e+00  9.744888e-01
 1.027065e+00  9.729351e-01
 1.028647e+00  9.713528e-01
 1.030256e+00  9.697439e-01
 1.031890e+00  9.681105e-01
 1.033546e+00  9.664544e-01
 1.035222e+00  9.647779e-01
 1.036917e+00  9.630830e-01
 1.038628e+00  9.613717e-01
 1.040354e+00  9.596463e-01
 1.042091e+00  9.579089e-01
 1.043838e+00  9.561616e-01
 1.045593e+00  9.544066e-01
 1.047354e+00  9.526462e-01
 1.049118e+00  9.508824e-01
 1.050882e+00  9.491176e-01
 1.052646e+00  9.473538e-01
 1.054407e+00  9.455934e-01
 1.056162e+00  9.438384e-01
 1.057909e+00  9.420911e-01
 1.059646e+00  9.403537e-01
 1.061372e+00  9.386283e-01
 1.063083e+00  9.369170e-01
 1.064778e+00  9.352221e-01
 1.066454e+00  9.335456e-01
 1.068110e+00  9.318895e-01
 1.069744e+00  9.302561e-01
 1.071353e+00  9.286472e-01
 1.072935e+00  9.270649e-01
 1.074489e+00  9.255112e-01
 1.076012e+00  9.239880e-01
 1.077503e+00  9.224972e-01
 1.078959e+00  9.210407e-01
 1.080380e+00  9.196203e-01
 1.081762e+00  9.182377e-01
 1.083105e+00  9.168947e-01
 1.084407e+00  9.155929e-01
 1.085666e+00  9.143340e-01
 1.086880e+00  9.131196e-01
 1.088049e+00  9.119511e-01
 1.089170e+00  9.108299e-01
 1.090242e+00  9.097576e-01
 1.091265e+00  9.087355e-01
 1.092235e+00  9.077647e-01
 1.093153e+00  9.068466e-01
 1.094018e+00  9.059822e-01
 1.094827e+00  9.051726e-01
 1.095581e+00  9.044189e-01
 1.096278e+00  9.037220e-01
 1.096917e+00  9.030828e-01
 1.097498e+00  9.025020e-01
 1.098020e+00  9.019804e-01
 1.098481e+00  9.015186e-01
 1.098883e+00  9.011172e-01
 1.099223e+00  9.007767e-01
 1.099502e+00  9.004976e-01
 1.099720e+00  9.002801e-01
 1.099875e+00  9.001245e-01
 1.099969e+00  9.000311e-01
 1.100000e+00  9.000000e-01
 1.000000e+00  1.000000e+00
 1.000031e+00  9.999689e-01
 1.000125e+00  9.998755e-01
 1.000280e+00  9.997199e-01
 1.000498e+00  9.995024e-01
 1.000777e+00  9.992233e-01
 1.001117e+00  9.988828e-01
 1.001519e+00  9.984814e-01
 1.001980e+00  9.980196e-01
 1.002502e+00  9.974980e-01
 1.003083e+00  9.969172e-01
 1.003722e+00  9.962780e-01
 1.004419e+00  9.955811e-01
 1.005173e+00  9.948274e-01
 1.005982e+00  9.940178e-01
 1.006847e+00  9.931534e-01
 1.007765e+00  9.922353e-01
 1.008735e+00  9.912645e-01
 1.009758e+00  9.902424e-01
 1.010830e+00  9.891701e-01
 1.011951e+00  9.880489e-01
 1.013120e+00  9.868804e-01
 1.014334e+00  9.856660e-01
 1.015593e+00  9.844071e-01
 1.016895e+00  9.831053e-01
 1.018238e+00  9.817623e-01
 1.019620e+00  9.803797e-01
 1.021041e+00  9.789593e-01
 1.022497e+00  9.775028e-01
 1.023988e+00  9.760120e-01
 1.025511e+00  9.744888e-01
 1.027065e+00  9.729351e-01
 1.028647e+00  9.713528e-01
 1.030256e+00  9.697439e-01
 1.031890e+00  9.681105e-01
 1.033546e+00  9.664544e-01
 1.035222e+00  9.647779e-01
 1.036917e+00  9.630830e-01
 1.038628e+00  9.613717e-01
 1.040354e+00  9.596463e-01
 1.042091e+00  9.579089e-01
 1.043838e+00  9.561616e-01
 1.045593e+00  9.544066e-01
 1.047354e+00  9.526462e-01
 1.049118e+00  9.508824e-01
 1.050882e+00  9.491176e-01
 1.052646e+00  9.473538e-01
 1.054407e+00  9.455934e-01
 1.056162e+00  9.438384e-01
 1.057909e+00  9.420911e-01
 1.059646e+00  9.403537e-01
 1.061372e+00  9.386283e-01
 1.063083e+00  9.369170e-01
 1.064778e+00  9.352221e-01
 1.066454e+00  9.335456e-01
 1.068110e+00  9.318895e-01
 1.069744e+00  9.302561e-01
 1.071353e+00  9.286472e-01
 1.072935e+00  9.270649e-01
 1.074489e+00  9.255112e-01
 1.076012e+00  9.239880e-01
 1.077503e+00  9.224972e-01
 1.078959e+00  9.210407e-01
 1.080380e+00  9.196203e-01
 1.081762e+00  9.182377e-01
 1.083105e+00  9.168947e-01
 1.084407e+00  9.155929e-01
 1.085666e+00  9.143340e-01
 1.086880e+00  9.131196e-01
 1.088049e+00  9.119511e-01
 1.089170e+00  9.108299e-01
 1.090242e+00  9.097576e-01
 1.091265e+00  9.087355e-01
 1.092235e+00  9.077647e-01
 1.093153e+00  9.068466e-01
 1.094018e+00  9.059822e-01
 1.094827e+00  9.051726e-01
 1.095581e+00  9.044189e-01
 1.096278e+00  9.037220e-01
 1.096917e+00  9.030828e-01
 1.097498e+00  9.025020e-01
 1.098020e+00  9.019804e-01
 1.098481e+00  9.015186e-01
 1.098883e+00  9.011172e-01
 1.099223e+00  9.007767e-01
 1.099502e+00  9.004976e-01
 1.099720e+00  9.002801e-01
 1.099875e+00  9.001245e-01
 1.099969e+00  9.000311e-01
 1.100000e+00  9.000000e-01
 1.000000e+00  1.000000e+00
 1.000031e+00  9.999689e-01
 1.000125e+00  9.998755e-01
 1.000280e+00  9.997199e-01
 1.000498e+00  9.995024e-01
 1.000777e+00  9.992233e-01
 1.001117e+00  9.988828e-01
 1.001519e+00  9.984814e-01
 1.001980e+00  9.980196e-01
 1.002502e+00  9.974980e-01
 1.003083e+00  9.969172e-01
 1.003722e+00  9.962780e-01
 1.004419e+00  9.955811e-01
 1.005173e+00  9.948274e-01
 1.005982e+00  9.940178e-01
 1.006847e+00  9.931534e-01
 1.007765e+00  9.922353e-01
 1.008735e+00  9.912645e-01
 1.009758e+00  9.902424e-01
 1.010830e+00  9.891701e-01
 1.011951e+00  9.880489e-01
 1.013120e+00  9.868804e-01
 1.014334e+00  9.856660e-01
 1.015593e+00  9.844071e-01
 1.016895e+00  9.831053e-01
 1.018238e+00  9.817623e-01
 1.019620e+00  9.803797e-01
 1.021041e+00  9.789593e-01
 1.022497e+00  9.775028e-01
 1.023988e+00  9.760120e-01
 1.025511e+00  9.744888e-01
 1.027065e+00  9.729351e-01
 1.028647e+00  9.713528e-01
 1.030256e+00  9.697439e-01
 1.031890e+00  9.681105e-01
 1.033546e+00  9.664544e-01
 1.035222e+00  9.647779e-01
 1.036917e+00  9.630830e-01
 1.038628e+00  9.613717e-01
 1.040354e+00  9.596463e-01
 1.042091e+00  9.579089e-01
 1.043838e+00  9.561616e-01
 1.045593e+00  9.544066e-01
 1.047354e+00  9.526462e-01
 1.049118e+00  9.508824e-01
 1.050882e+00  9.491176e-01
 1.052646e+00  9.473538e-01
 1.054407e+00  9.455934e-01
 1.056162e+00  9.438384e-01
 1.057909e+00  9.420911e-01
 1.059646e+00  9.403537e-01
 1.061372e+00  9.386283e-01
 1.063083e+00  9.369170e-01
 1.064778e+00  9.352221e-01
 1.066454e+00  9.335456e-01
 1.068110e+00  9.318895e-01
 1.069744e+00  9.302561e-01
 1.071353e+00  9.286472e-01
 1.072935e+00  9.270649e-01
 1.074489e+00  9.255112e-01
 1.076012e+00  9.239880e-01
 1.077503e+00  9.224972e-01
 1.078959e+00  9.210407e-01
 1.080380e+00  9.196203e-01
 1.081762e+00  9.182377e-01
 1.083105e+00  9.168947e-01
 1.084407e+00  9.155929e-01
 1.085666e+00  9.143340e-01
 1.086880e+00  9.131196e-01
 1.088049e+00  9.119511e-01
 1.089170e+00  9.108299e-01
 1.090242e+00  9.097576e-01
 1.091265e+00  9.087355e-01
 1.092235e+00  9.077647e-01
 1.093153e+00  9.068466e-01
 1.094018e+00  9.059822e-01
 1.094827e+00  9.051726e-01
 1.095581e+00  9.044189e-01
 1.096278e+00  9.037220e-01
 1.096917e+00  9.030828e-01
 1.097498e+00  9.025020e-01
 1.098020e+00  9.019804e-01
 1.098481e+00  9.015186e-01
 1.098883e+00  9.011172e-01
 1.099223e+00  9.007767e-01
 1.099502e+00  9.004976e-01
 1.099720e+00  9.002801e-01
 1.099875e+00  9.001245e-01
 1.099969e+00  9.000311e-01
 1.100000e+00  9.000000e-01
 1.000000e+00  1.000000e+00
 1.000031e+00  9.999689e-01
 1.000125e+00  9.998755e-01
 1.000280e+00  9.997199e-01
 1.000498e+00  9.995024e-01
 1.000777e+00  9.992233e-01
 1.001117e+00  9.988828e-01
 1.001519e+00  9.984814e-01
 1.001980e+00  9.980196e-01
 1.002502e+00  9.974980e-01
 1.003083e+00  9.969172e-01
 1.003722e+00  9.962780e-01
 1.004419e+00  9.955811e-01
 1.005173e+00  9.948274e-01
 1.005982e+00  9.940178e-01
 1.006847e+00  9.931534e-01
 1.007765e+00  9.922353e-01
 1.008735e+00  9.912645e-01
 1.009758e+00  9.902424e-01
 1.010830e+00  9.891701e-01
 1.011951e+00  9.880489e-01
 1.013120e+00  9.868804e-01
 1.014334e+00  9.856660e-01
 1.015593e+00  9.844071e-01
 1.016895e+00  9.831053e-01
 1.018238e+00  9.817623e-01
 1.019620e+00  9.803797e-01
 1.021041e+00  9.789593e-01
 1.022497e+00  9.775028e-01
 1.023988e+00  9.760120e-01
 1.025511e+00  9.744888e-01
 1.027065e+00  9.729351e-01
 1.028647e+00  9.713528e-01
 1.030256e+00  9.697439e-01
 1.031890e+00  9.681105e-01
 1.033546e+00  9.664544e-01
 1.035222e+00  9.647779e-01
 1.036917e+00  9.630830e-01
 1.038628e+00  9.613717e-01
 1.040354e+00  9.596463e-01
 1.042091e+00  9.579089e-01
 1.043838e+00  9.561616e-01
 1.045593e+00  9.544066e-01
 1.047354e+00  9.526462e-01
 1.049118e+00  9.508824e-01
 1.050882e+00  9.491176e-01
 1.052646e+00  9.473538e-01
 1.054407e+00  9.455934e-01
 1.056162e+00  9.438384e-01
 1.057909e+00  9.420911e-01
 1.059646e+00  9.403537e-01
 1.061372e+00  9.386283e-01
 1.063083e+00  9.369170e-01
 1.064778e+00  9.352221e-01
 1.066454e+00  9.335456e-01
 1.068110e+00  9.318895e-01
 1.069744e+00  9.302561e-01
 1.071353e+00  9.286472e-01
 1.072935e+00  9.270649e-01
 1.074489e+00  9.255112e-01
 1.076012e+00  9.239880e-01
 1.077503e+00  9.224972e-01
 1.078959e+00  9.210407e-01
 1.080380e+00  9.196203e-01
 1.081762e+00  9.182377e-01
 1.083105e+00  9.168947e-01
 1.084407e+00  9.155929e-01
 1.085666e+00  9.143340e-01
 1.086880e+00  9.131196e-01
 1.088049e+00  9.119511e-01
 1.089170e+00  9.108299e-01
 1.090242e+00  9.097576e-01
 1.091265e+00  9.087355e-01
 1.092235e+00  9.077647e-01
 1.093153e+00  9.068466e-01
 1.094018e+00  9.059822e-01
 1.094827e+00  9.051726e-01
 1.095581e+00  9.044189e-01
 1.096278e+00  9.037220e-01
 1.096917e+00  9.030828e-01
 1.097498e+00  9.025020e-01
 1.098020e+00  9.019804e-01
 1.098481e+00  9.015186e-01
 1.098883e+00  9.011172e-01
 1.099223e+00  9.007767e-01
 1.099502e+00  9.004976e-01
 1.099720e+00  9.002801e-01
 1.099875e+00  9.001245e-01
 1.099969e+00  9.000311e-01
 1.100000e+00  9.000000e-01
 1.000000e+00  1.000000e+00
 1.000031e+00  9.999689e-01
 1.000125e+00  9.998755e-01
 1.000280e+00  9.997199e-01
 1.000498e+00  9.995024e-01
 1.000777e+00  9.992233e-01
 1.001117e+00  9.988828e-01
 1.001519e+00  9.984814e-01
 1.001980e+00  9.980196e-01
 1.002502e+00  9.974980e-01
 1.003083e+00  9.969172e-01
 1.003722e+00  9.962780e-01
 1.004419e+00  9.955811e-01
 1.005173e+00  9.948274e-01
 1.005982e+00  9.940178e-01
 1.006847e+00  9.931534e-01
 1.007765e+00  9.922353e-01
 1.008735e+00  9.912645e-01
 1.009758e+00  9.902424e-01
 1.010830e+00  9.891701e-01
 1.011951e+00  9.880489e-01
 1.013120e+00  9.868804e-01
 1.014334e+00  9.856660e-01
 1.015593e+00  9.844071e-01
 1.016895e+00  9.831053e-01
 1.018238e+00  9.817623e-01
 1.019620e+00  9.803797e-01
 1.021041e+00  9.789593e-01
 1.022497e+00  9.775028e-01
 1.023988e+00  9.760120e-01
 1.025511e+00  9.744888e-01
 1.027065e+00  9.729351e-01
 1.028647e+00  9.713528e-01
 1.030256e+00  9.697439e-01
 1.031890e+00  9.681105e-01
 1.033546e+00  9.664544e-01
 1.035222e+00  9.647779e-01
 1.036917e+00  9.630830e-01
 1.038628e+00  9.613717e-01
 1.040354e+00  9.596463e-01
 1.042091e+00  9.579089e-01
 1.043838e+00  9.561616e-01
 1.045593e+00  9.544066e-01
 1.047354e+00  9.526462e-01
 1.049118e+00  9.508824e-01
 1.050882e+00  9.491176e-01
 1.052646e+00  9.473538e-01
 1.054407e+00  9.455934e-01
 1.056162e+00  9.438384e-01
 1.057909e+00  9.420911e-01
 1.059646e+00  9.403537e-01
 1.061372e+00  9.386283e-01
 1.063083e+00  9.369170e-01
 1.064778e+00  9.352221e-01
 1.066454e+00  9.335456e-01
 1.068110e+00  9.318895e-01
 1.069744e+00  9.302561e-01
 1.071353e+00  9.286472e-01
 1.072935e+00  9.270649e-01
 1.074489e+00  9.255112e-01
 1.076012e+00  9.239880e-01
 1.077503e+00  9.224972e-01
 1.078959e+00  9.210407e-01
 1.080380e+00  9.196203e-01
 1.081762e+00  9.182377e-01
 1.083105e+00  9.168947e-01
 1.084407e+00  9.155929e-01
 1.085666e+00  9.143340e-01
 1.086880e+00  9.131196e-01
 1.088049e+00  9.119511e-01
 1.089170e+00  9.108299e-01
 1.090242e+00  9.097576e-01
 1.091265e+00  9.087355e-01
 1.092235e+00  9.077647e-01
 1.093153e+00  9.068466e-01
 1.094018e+00  9.059822e-01
 1.094827e+00  9.051726e-01
 1.095581e+00  9.044189e-01
 1.096278e+00  9.037220e-01
 1.096917e+00  9.030828e-01
 1.097498e+00  9.025020e-01
 1.098020e+00  9.019804e-01
 1.098481e+00  9.015186e-01
 1.098883e+00  9.011172e-01
 1.099223e+00  9.007767e-01
 1.099502e+00  9.004976e-01
 1.099720e+00  9.002801e-01
 1.099875e+00  9.001245e-01
 1.099969e+00  9.000311e-01
 1.100000e+00  9.000000e-01
 1.000000e+00  1.000000e+00
 1.000031e+00  9.999689e-01
 1.000125e+00  9.998755e-01
 1.000280e+00  9.997199e-01
 1.000498e+00  9.995024e-01
 1.000777e+00  9.992233e-01
 1.001117e+00  9.988828e-01
 1.001519e+00  9.984814e-01
 1.001980e+00  9.980196e-01
 1.002502e+00  9.974980e-01
 1.003083e+00  9.969172e-01
 1.003722e+00  9.962780e-01
 1.004419e+00  9.955811e-01
 1.005173e+00  9.948274e-01
 1.005982e+00  9.940178e-01
 1.006847e+00  9.931534e-01
 1.007765e+00  9.922353e-01
 1.008735e+00  9.912645e-01
 1.009758e+00  9.902424e-01
 1.010830e+00  9.891701e-01
 1.011951e+00  9.880489e-01
 1.013120e+00  9.868804e-01
 1.014334e+00  9.856660e-01
 1.015593e+00  9.844071e-01
 1.016895e+00  9.831053e-01
 1.018238e+00  9.817623e-01
 1.019620e+00  9.803797e-01
 1.021041e+00  9.789593e-01
 1.022497e+00  9.775028e-01
 1.023988e+00  9.760120e-01
 1.025511e+00  9.744888e-01
 1.027065e+00  9.729351e-01
 1.028647e+00  9.713528e-01
 1.030256e+00  9.697439e-01
 1.031890e+00  9.681105e-01
 1.033546e+00  9.664544e-01
 1.035222e+00  9.647779e-01
 1.036917e+00  9.630830e-01
 1.038628e+00  9.613717e-01
 1.040354e+00  9.596463e-01
 1.042091e+00  9.579089e-01
 1.043838e+00  9.561616e-01
 1.045593e+00  9.544066e-01
 1.047354e+00  9.526462e-01
 1.049118e+00  9.508824e-01
 1.050882e+00  9.491176e-01
 1.052646e+00  9.473538e-01
 1.054407e+00  9.455934e-01
 1.056162e+00  9.438384e-01
 1.057909e+00  9.420911e-01
 1.059646e+00  9.403537e-01
 1.061372e+00  9.386283e-01
 1.063083e+00  9.369170e-01
 1.064778e+00  9.352221e-01
 1.066454e+00  9.335456e-01
 1.068110e+00  9.318895e-01
 1.069744e+00  9.302561e-01
 1.071353e+00  9.286472e-01
 1.072935e+00  9.270649e-01
 1.074489e+00  9.255112e-01
 1.076012e+00  9.239880e-01
 1.077503e+00  9.224972e-01
 1.078959e+00  9.210407e-01
 1.080380e+00  9.196203e-01
 1.081762e+00  9.182377e-01
 1.083105e+00  9.168947e-01
 1.084407e+00  9.155929e-01
 1.085666e+00  9.143340e-01
 1.086880e+00  9.131196e-01
 1.088049e+00  9.119511e-01
 1.089170e+00  9.108299e-01
 1.090242e+00  9.097576e-01
 1.091265e+00  9.087355e-01
 1.092235e+00  9.077647e-01
 1.093153e+00  9.068466e-01
 1.094018e+00  9.059822e-01
 1.094827e+00  9.051726e-01
 1.095581e+00  9.044189e-01
 1.096278e+00  9.037220e-01
 1.096917e+00  9.030828e-01
 1.097498e+00  9.025020e-01
 1.098020e+00  9.019804e-01
 1.098481e+00  9.015186e-01
 1.098883e+00  9.011172e-01
 1.099223e+00  9.007767e-01
 1.099502e+00  9.004976e-01
 1.099720e+00  9.002801e-01
 1.099875e+00  9.001245e-01
 1.099969e+00  9.000311e-01
 1.100000e+00  9.000000e-01
 1.000000e+00  1.000000e+00
 1.000031e+00  9.999689e-01
 1.000125e+00  9.998755e-01
 1.000280e+00  9.997199e-01
 1.000498e+00  9.995024e-01
 1.000777e+00  9.992233e-01
 1.001117e+00  9.988828e-01
 1.001519e+00  9.984814e-01
 1.001980e+00  9.980196e-01
 1.002502e+00  9.974980e-01
 1.003083e+00  9.969172e-01
 1.003722e+00  9.962780e-01
 1.004419e+00  9.955811e-01
 1.005173e+00  9.948274e-01
 1.005982e+00  9.940178e-01
 1.006847e+00  9.931534e-01
 1.007765e+00  9.922353e-01
 1.008735e+00  9.912645e-01
 1.009758e+00  9.902424e-01
 1.010830e+00  9.891701e-01
 1.011951e+00  9.880489e-01
 1.013120e+00  9.868804e-01
 1.014334e+00  9.856660e-01
 1.015593e+00  9.844071e-01
 1.016895e+00  9.831053e-01
 1.018238e+00  9.817623e-01
 1.019620e+00  9.803797e-01
 1.021041e+00  9.789593e-01
 1.022497e+00  9.775028e-01
 1.023988e+00  9.760120e-01
 1.025511e+00  9.744888e-01
 1.027065e+00  9.729351e-01
 1.028647e+00  9.713528e-01
 1.030256e+00  9.697439e-01
 1.031890e+00  9.681105e-01
 1.033546e+00  9.664544e-01
 1.035222e+00  9.647779e-01
 1.036917e+00  9.630830e-01
 1.038628e+00  9.613717e-01
 1.040354e+00  9.596463e-01
 1.042091e+00  9.579089e-01
 1.043838e+00  9.561616e-01
 1.045593e+00  9.544066e-01
 1.047354e+00  9.526462e-01
 1.049118e+00  9.508824e-01
 1.050882e+00  9.491176e-01
 1.052646e+00  9.473538e-01
 1.054407e+00  9.455934e-01
 1.056162e+00  9.438384e-01
 1.057909e+00  9.420911e-01
 1.059646e+00  9.403537e-01
 1.061372e+00  9.386283e-01
 1.063083e+00  9.369170e-01
 1.064778e+00  9.352221e-01
 1.066454e+00  9.335456e-01
 1.068110e+00  9.318895e-01
 1.069744e+00  9.302561e-01
 1.071353e+00  9.286472e-01
 1.072935e+00  9.270649e-01
 1.074489e+00  9.255112e-01
 1.076012e+00  9.239880e-01
 1.077503e+00  9.224972e-01
 1.078959e+00  9.210407e-01
 1.080380e+00  9.196203e-01
 1.081762e+00  9.182377e-01
 1.083105e+00  9.168947e-01
 1.084407e+00  9.155929e-01
 1.085666e+00  9.143340e-01
 1.086880e+00  9.131196e-01
 1.088049e+00  9.119511e-01
 1.089170e+00  9.108299e-01
 1.090242e+00  9.097576e-01
 1.091265e+00  9.087355e-01
 1.092235e+00  9.077647e-01
 1.093153e+00  9.068466e-01
 1.094018e+00  9.059822e-01
 1.094827e+00  9.051726e-01
 1.095581e+00  9.044189e-01
 1.096278e+00  9.037220e-01
 1.096917e+00  9.030828e-01
 1.097498e+00  9.025020e-01
 1.098020e+00  9.019804e-01
 1.098481e+00  9.015186e-01
 1.098883e+00  9.011172e-01
 1.099223e+00  9.007767e-01
 1.099502e+00  9.004976e-01
 1.099720e+00  9.002801e-01
 1.099875e+00  9.001245e-01
 1.099969e+00  9.000311e-01
 1.100000e+00  9.000000e-01
 1.000000e+00  1.000000e+00
 1.000031e+00  9.999689e-01
 1.000125e+00  9.998755e-01
 1.000280e+00  9.997199e-01
 1.000498e+00  9.995024e-01
 1.000777e+00  9.992233e-01
 1.001117e+00  9.988828e-01
 1.001519e+00  9.984814e-01
 1.001980e+00  9.980196e-01
 1.002502e+00  9.974980e-01
 1.003083e+00  9.969172e-01
 1.003722e+00  9.962780e-01
 1.004419e+00  9.955811e-01
 1.005173e+00  9.948274e-01
 1.005982e+00  9.940178e-01
 1.006847e+00  9.931534e-01
 1.007765e+00  9.922353e-01
 1.008735e+00  9.912645e-01
 1.009758e+00  9.902424e-01
 1.010830e+00  9.891701e-01
 1.011951e+00  9.880489e-01
 1.013120e+00  9.868804e-01
 1.014334e+00  9.856660e-01
 1.015593e+00  9.844071e-01
 1.016895e+00  9.831053e-01
 1.018238e+00  9.817623e-01
 1.019620e+00  9.803797e-01
 1.021041e+00  9.789593e-01
 1.022497e+00  9.775028e-01
 1.023988e+00  9.760120e-01
 1.025511e+00  9.744888e-01
 1.027065e+00  9.729351e-01
 1.028647e+00  9.713528e-01
 1.030256e+00  9.697439e-01
 1.031890e+00  9.681105e-01
 1.033546e+00  9.664544e-01
 1.035222e+00  9.647779e-01
 1.036917e+00  9.630830e-01
 1.038628e+00  9.613717e-01
 1.040354e+00  9.596463e-01
 1.042091e+00  9.579089e-01
 1.043838e+00  9.561616e-01
 1.045593e+00  9.544066e-01
 1.047354e+00  9.526462e-01
 1.049118e+00  9.508824e-01
 1.050882e+00  9.491176e-01
 1.052646e+00  9.473538e-01
 1.054407e+00  9.455934e-01
 1.056162e+00  9.438384e-01
 1.057909e+00  9.420911e-01
 1.059646e+00  9.403537e-01
 1.061372e+00  9.386283e-01
 1.063083e+00  9.369170e-01
 1.064778e+00  9.352221e-01
 1.066454e+00  9.335456e-01
 1.068110e+00  9.318895e-01
 1.069744e+00  9.302561e-01
 1.071353e+00  9.286472e-01
 1.072935e+00  9.270649e-01
 1.074489e+00  9.255112e-01
 1.076012e+00  9.239880e-01
 1.077503e+00  9.224972e-01
 1.078959e+00  9.210407e-01
 1.080380e+00  9.196203e-01
 1.081762e+00  9.182377e-01
 1.083105e+00  9.168947e-01
 1.084407e+00  9.155929e-01
 1.085666e+00  9.143340e-01
 1.086880e+00  9.131196e-01
 1.088049e+00  9.119511e-01
 1.089170e+00  9.108299e-01
 1.090242e+00  9.097576e-01
 1.091265e+00  9.087355e-01
 1.092235e+00  9.077647e-01
 1.093153e+00  9.068466e-01
 1.094018e+00  9.059822e-01
 1.094827e+00  9.051726e-01
 1.095581e+00  9.044189e-01
 1.096278e+00  9.037220e-01
 1.096917e+00  9.030828e-01
 1.097498e+00  9.025020e-01
 1.098020e+00  9.019804e-01
 1.098481e+00  9.015186e-01
 1.098883e+00  9.011172e-01
 1.099223e+00  9.007767e-01
 1.099502e+00  9.004976e-01
 1.099720e+00  9.002801e-01
 1.099875e+00  9.001245e-01
 1.099969e+00  9.000311e-01
 1.100000e+00  9.000000e-01
 1.000000e+00  1.000000e+00
 1.000031e+00  9.999689e-01
 1.000125e+00  9.998755e-01
 1.000280e+00  9.997199e-01
 1.000498e+00  9.995024e-01
 1.000777e+00  9.992233e-01
 1.001117e+00  9.988828e-01
 1.001519e+00  9.984814e-01
 1.001980e+00  9.980196e-01
 1.002502e+00  9.974980e-01
 1.003083e+00  9.969172e-01
 1.003722e+00  9.962780e-01
 1.004419e+00  9.955811e-01
 1.005173e+00  9.948274e-01
 1.005982e+00  9.940178e-01
 1.006847e+00  9.931534e-01
 1.007765e+00  9.922353e-01
 1.008735e+00  9.912645e-01
 1.009758e+00  9.902424e-01
 1.010830e+00  9.891701e-01
 1.011951e+00  9.880489e-01
 1.013120e+00  9.868804e-01
 1.014334e+00  9.856660e-01
 1.015593e+00  9.844071e-01
 1.016895e+00  9.831053e-01
 1.018238e+00  9.817623e-01
 1.019620e+00  9.803797e-01
 1.021041e+00  9.789593e-01
 1.022497e+00  9.775028e-01
 1.023988e+00  9.760120e-01
 1.025511e+00  9.744888e-01
 1.027065e+00  9.729351e-01
 1.028647e+00  9.713528e-01
 1.030256e+00  9.697439e-01
 1.031890e+00  9.681105e-01
 1.033546e+00  9.664544e-01
 1.035222e+00  9.647779e-01
 1.036917e+00  9.630830e-01
 1.038628e+00  9.613717e-01
 1.040354e+00  9.596463e-01
 1.042091e+00  9.579089e-01
 1.043838e+00  9.561616e-01
 1.045593e+00  9.544066e-01
 1.047354e+00  9.526462e-01
 1.049118e+00  9.508824e-01
 1.050882e+00  9.491176e-01
 1.052646e+00  9.473538e-01
 1.054407e+00  9.455934e-01
 1.056162e+00  9.438384e-01
 1.057909e+00  9.420911e-01
 1.059646e+00  9.403537e-01
 1.061372e+00  9.386283e-01
 1.063083e+00  9.369170e-01
 1.064778e+00  9.352221e-01
 1.066454e+00  9.335456e-01
 1.068110e+00  9.318895e-01
 1.069744e+00  9.302561e-01
 1.071353e+00  9.286472e-01
 1.072935e+00  9.270649e-01
 1.074489e+00  9.255112e-01
 1.076012e+00  9.239880e-01
 1.077503e+00  9.224972e-01
 1.078959e+00  9.210407e-01
 1.080380e+00  9.196203e-01
 1.081762e+00  9.182377e-01
 1.083105e+00  9.168947e-01
 1.084407e+00  9.155929e-01
 1.085666e+00  9.143340e-01
 1.086880e+00  9.131196e-01
 1.088049e+00  9.119511e-01
 1.089170e+00  9.108299e-01
 1.090242e+00  9.097576e-01
 1.091265e+00  9.087355e-01
 1.092235e+00  9.077647e-01
 1.093153e+00  9.068466e-01
 1.094018e+00  9.059822e-01
 1.094827e+00  9.051726e-01
 1.095581e+00  9.044189e-01
 1.096278e+00  9.037220e-01
 1.096917e+00  9.030828e-01
 1.097498e+00  9.025020e-01
 1.098020e+00  9.019804e-01
 1.098481e+00  9.015186e-01
 1.098883e+00  9.011172e-01
 1.099223e+00  9.007767e-01
 1.099502e+00  9.004976e-01
 1.099720e+00  9.002801e-01
 1.099875e+00  9.001245e-01
 1.099969e+00  9.000311e-01
 1.100000e+00  9.000000e-01
 1.000000e+00  1.000000e+00
 1.000031e+00  9.999689e-01
 1.000125e+00  9.998755e-01
 1.000280e+00  9.997199e-01
 1.000498e+00  9.995024e-01
 1.000777e+00  9.992233e-01
 1.001117e+00  9.988828e-01
 1.001519e+00  9.984814e-01
 1.001980e+00  9.980196e-01
 1.002502e+00  9.974980e-01
 1.003083e+00  9.969172e-01
 1.003722e+00  9.962780e-01
 1.004419e+00  9.955811e-01
 1.005173e+00  9.948274e-01
 1.005982e+00  9.940178e-01
 1.006847e+00  9.931534e-01
 1.007765e+00  9.922353e-01
 1.008735e+00  9.912645e-01
 1.009758e+00  9.902424e-01
 1.010830e+00  9.891701e-01
 1.011951e+00  9.880489e-01
 1.013120e+00  9.868804e-01
 1.014334e+00  9.856660e-01
 1.015593e+00  9.844071e-01
 1.016895e+00  9.831053e-01
 1.018238e+00  9.817623e-01
 1.019620e+00  9.803797e-01
 1.021041e+00  9.789593e-01
 1.022497e+00  9.775028e-01
 1.023988e+00  9.760120e-01
 1.025511e+00  9.744888e-01
 1.027065e+00  9.729351e-01
 1.028647e+00  9.713528e-01
 1.030256e+00  9.697439e-01
 1.031890e+00  9.681105e-01
 1.033546e+00  9.664544e-01
 1.035222e+00  9.647779e-01
 1.036917e+00  9.630830e-01
 1.038628e+00  9.613717e-01
 1.040354e+00  9.596463e-01
 1.042091e+00  9.579089e-01
 1.043838e+00  9.561616e-01
 1.045593e+00  9.544066e-01
 1.047354e+00  9.526462e-01
 1.049118e+00  9.508824e-01
 1.050882e+00  9.491176e-01
 1.052646e+00  9.473538e-01
 1.054407e+00  9.455934e-01
 1.056162e+00  9.438384e-01
 1.057909e+00  9.420911e-01
 1.059646e+00  9.403537e-01
 1.061372e+00  9.386283e-01
 1.063083e+00  9.369170e-01
 1.064778e+00  9.352221e-01
 1.066454e+00  9.335456e-01
 1.068110e+00  9.318895e-01
 1.069744e+00  9.302561e-01
 1.071353e+00  9.286472e-01
 1.072935e+00  9.270649e-01
 1.074489e+00  9.255112e-01
 1.076012e+00  9.239880e-01
 1.077503e+00  9.224972e-01
 1.078959e+00  9.210407e-01
 1.080380e+00  9.196203e-01
 1.081762e+00  9.182377e-01
 1.083105e+00  9.168947e-01
 1.084407e+00  9.155929e-01
 1.085666e+00  9.143340e-01
 1.086880e+00  9.131196e-01
 1.088049e+00  9.119511e-01
 1.089170e+00  9.108299e-01
 1.090242e+00  9.097576e-01
 1.091265e+00  9.087355e-01
 1.092235e+00  9.077647e-01
 1.093153e+00  9.068466e-01
 1.094018e+00  9.059822e-01
 1.094827e+00  9.051726e-01
 1.095581e+00  9.044189e-01
 1.096278e+00  9.037220e-01
 1.096917e+00  9.030828e-01
 1.097498e+00  9.025020e-01
 1.098020e+00  9.019804e-01
 1.098481e+00  9.015186e-01
 1.098883e+00  9.011172e-01
 1.099223e+00  9.007767e-01
 1.099502e+00  9.004976e-01
 1.099720e+00  9.002801e-01
 1.099875e+00  9.001245e-01
 1.099969e+00  9.000311e-01
 1.100000e+00  9.000000e-01
 1.000000e+00  1.000000e+00
 1.000031e+00  9.999689e-01
 1.000125e+00  9.998755e-01
 1.000280e+00  9.997199e-01
 1.000498e+00  9.995024e-01
 1.000777e+00  9.992233e-01
 1.001117e+00  9.988828e-01
 1.001519e+00  9.984814e-01
 1.001980e+00  9.980196e-01
 1.002502e+00  9.974980e-01
 1.003083e+00  9.969172e-01
 1.003722e+00  9.962780e-01
 1.004419e+00  9.955811e-01
 1.005173e+00  9.948274e-01
 1.005982e+00  9.940178e-01
 1.006847e+00  9.931534e-01
 1.007765e+00  9.922353e-01
 1.008735e+00  9.912645e-01
 1.009758e+00  9.902424e-01
 1.010830e+00  9.891701e-01
 1.011951e+00  9.880489e-01
 1.013120e+00  9.868804e-01
 1.014334e+00  9.856660e-01
 1.015593e+00  9.844071e-01
 1.016895e+00  9.831053e-01
 1.018238e+00  9.817623e-01
 1.019620e+00  9.803797e-01
 1.021041e+00  9.789593e-01
 1.022497e+00  9.775028e-01
 1.023988e+00  9.760120e-01
 1.025511e+00  9.744888e-01
 1.027065e+00  9.729351e-01
 1.028647e+00  9.713528e-01
 1.030256e+00  9.697439e-01
 1.031890e+00  9.681105e-01
 1.033546e+00  9.664544e-01
 1.035222e+00  9.647779e-01
 1.036917e+00  9.630830e-01
 1.038628e+00  9.613717e-01
 1.040354e+00  9.596463e-01
 1.042091e+00  9.579089e-01
 1.043838e+00  9.561616e-01
 1.045593e+00  9.544066e-01
 1.047354e+00  9.526462e-01
 1.049118e+00  9.508824e-01
 1.050882e+00  9.491176e-01
 1.052646e+00  9.473538e-01
 1.054407e+00  9.455934e-01
 1.056162e+00  9.438384e-01
 1.057909e+00  9.420911e-01
 1.059646e+00  9.403537e-01
 1.061372e+00  9.386283e-01
 1.063083e+00  9.369170e-01
 1.064778e+00  9.352221e-01
 1.066454e+00  9.335456e-01
 1.068110e+00  9.318895e-01
 1.069744e+00  9.302561e-01
 1.071353e+00  9.286472e-01
 1.072935e+00  9.270649e-01
 1.074489e+00  9.255112e-01
 1.076012e+00  9.239880e-01
 1.077503e+00  9.224972e-01
 1.078959e+00  9.210407e-01
 1.080380e+00  9.196203e-01
 1.081762e+00  9.182377e-01
 1.083105e+00  9.168947e-01
 1.084407e+00  9.155929e-01
 1.085666e+00  9.143340e-01
 1.086880e+00  9.131196e-01
 1.088049e+00  9.119511e-01
 1.089170e+00  9.108299e-01
 1.090242e+00  9.097576e-01
 1.091265e+00  9.087355e-01
 1.092235e+00  9.077647e-01
 1.093153e+00  9.068466e-01
 1.094018e+00  9.059822e-01
 1.094827e+00  9.051726e-01
 1.095581e+00  9.044189e-01
 1.096278e+00  9.037220e-01
 1.096917e+00  9.030828e-01
 1.097498e+00  9.025020e-01
 1.098020e+00  9.019804e-01
 1.098481e+00  9.015186e-01
 1.098883e+00  9.011172e-01
 1.099223e+00  9.007767e-01
 1.099502e+00  9.004976e-01
 1.099720e+00  9.002801e-01
 1.099875e+00  9.001245e-01
 1.099969e+00  9.000311e-01
 1.100000e+00  9.000000e-01
 1.000000e+00  1.000000e+00
 1.000031e+00  9.999689e-01
 1.000125e+00  9.998755e-01
 1.000280e+00  9.997199e-01
 1.000498e+00  9.995024e-01
 1.000777e+00  9.992233e-01
 1.001117e+00  9.988828e-01
 1.001519e+00  9.984814e-01
 1.001980e+00  9.980196e-01
 1.002502e+00  9.974980e-01
 1.003083e+00  9.969172e-01
 1.003722e+00  9.962780e-01
 1.004419e+00  9.955811e-01
 1.005173e+00  9.948274e-01
 1.005982e+00  9.940178e-01
 1.006847e+00  9.931534e-01
 1.007765e+00  9.922353e-01
 1.008735e+00  9.912645e-01
 1.009758e+00  9.902424e-01
 1.010830e+00  9.891701e-01
 1.011951e+00  9.880489e-01
 1.013120e+00  9.868804e-01
 1.014334e+00  9.856660e-01
 1.015593e+00  9.844071e-01
 1.016895e+00  9.831053e-01
 1.018238e+00  9.817623e-01
 1.019620e+00  9.803797e-01
 1.021041e+00  9.789593e-01
 1.022497e+00  9.775028e-01
 1.023988e+00  9.760120e-01
 1.025511e+00  9.744888e-01
 1.027065e+00  9.729351e-01
 1.028647e+00  9.713528e-01
 1.030256e+00  9.697439e-01
 1.031890e+00  9.681105e-01
 1.033546e+00  9.664544e-01
 1.035222e+00  9.647779e-01
 1.036917e+00  9.630830e-01
 1.038628e+00  9.613717e-01
 1.040354e+00  9.596463e-01
 1.042091e+00  9.579089e-01
 1.043838e+00  9.561616e-01
 1.045593e+00  9.544066e-01
 1.047354e+00  9.526462e-01
 1.049118e+00  9.508824e-01
 1.050882e+00  9.491176e-01
 1.052646e+00  9.473538e-01
 1.054407e+00  9.455934e-01
 1.056162e+00  9.438384e-01
 1.057909e+00  9.420911e-01
 1.059646e+00  9.403537e-01
 1.061372e+00  9.386283e-01
 1.063083e+00  9.369170e-01
 1.064778e+00  9.352221e-01
 1.066454e+00  9.335456e-01
 1.068110e+00  9.318895e-01
 1.069744e+00  9.302561e-01
 1.071353e+00  9.286472e-01
 1.072935e+00  9.270649e-01
 1.074489e+00  9.255112e-01
 1.076012e+00  9.239880e-01
 1.077503e+00  9.224972e-01
 1.078959e+00  9.210407e-01
 1.080380e+00  9.196203e-01
 1.081762e+00  9.182377e-01
 1.083105e+00  9.168947e-01
 1.084407e+00  9.155929e-01
 1.085666e+00  9.143340e-01
 1.086880e+00  9.131196e-01
 1.088049e+00  9.119511e-01
 1.089170e+00  9.108299e-01
 1.090242e+00  9.097576e-01
 1.091265e+00  9.087355e-01
 1.092235e+00  9.077647e-01
 1.093153e+00  9.068466e-01
 1.094018e+00  9.059822e-01
 1.094827e+00  9.051726e-01
 1.095581e+00  9.044189e-01
 1.096278e+00  9.037220e-01
 1.096917e+00  9.030828e-01
 1.097498e+00  9.025020e-01
 1.098020e+00  9.019804e-01
 1.098481e+00  9.015186e-01
 1.098883e+00  9.011172e-01
 1.099223e+00  9.007767e-01
 1.099502e+00  9.004976e-01
 1.099720e+00  9.002801e-01
 1.099875e+00  9.001245e-01
 1.099969e+00  9.000311e-01
 1.100000e+00  9.000000e-01
 1.000000e+00  1.000000e+00
 1.000031e+00  9.999689e-01
 1.000125e+00  9.998755e-01
 1.000280e+00  9.997199e-01
 1.000498e+00  9.995024e-01
 1.000777e+00  9.992233e-01
 1.001117e+00  9.988828e-01
 1.001519e+00  9.984814e-01
 1.001980e+00  9.980196e-01
 1.002502e+00  9.974980e-01
 1.003083e+00  9.969172e-01
 1.003722e+00  9.962780e-01
 1.004419e+00  9.955811e-01
 1.005173e+00  9.948274e-01
 1.005982e+00  9.940178e-01
 1.006847e+00  9.931534e-01
 1.007765e+00  9.922353e-01
 1.008735e+00  9.912645e-01
 1.009758e+00  9.902424e-01
 1.010830e+00  9.891701e-01
 1.011951e+00  9.880489e-01
 1.013120e+00  9.868804e-01
 1.014334e+00  9.856660e-01
 1.015593e+00  9.844071e-01
 1.016895e+00  9.831053e-01
 1.018238e+00  9.817623e-01
 1.019620e+00  9.803797e-01
 1.021041e+00  9.789593e-01
 1.022497e+00  9.775028e-01
 1.023988e+00  9.760120e-01
 1.025511e+00  9.744888e-01
 1.027065e+00  9.729351e-01
 1.028647e+00  9.713528e-01
 1.030256e+00  9.697439e-01
 1.031890e+00  9.681105e-01
 1.033546e+00  9.664544e-01
 1.035222e+00  9.647779e-01
 1.036917e+00  9.630830e-01
 1.038628e+00  9.613717e-01
 1.040354e+00  9.596463e-01
 1.042091e+00  9.579089e-01
 1.043838e+00  9.561616e-01
 1.045593e+00  9.544066e-01
 1.047354e+00  9.526462e-01
 1.049118e+00  9.508824e-01
 1.050882e+00  9.491176e-01
 1.052646e+00  9.473538e-01
 1.054407e+00  9.455934e-01
 1.056162e+00  9.438384e-01
 1.057909e+00  9.420911e-01
 1.059646e+00  9.403537e-01
 1.061372e+00  9.386283e-01
 1.063083e+00  9.369170e-01
 1.064778e+00  9.352221e-01
 1.066454e+00  9.335456e-01
 1.068110e+00  9.318895e-01
 1.069744e+00  9.302561e-01
 1.071353e+00  9.286472e-01
 1.072935e+00  9.270649e-01
 1.074489e+00  9.255112e-01
 1.076012e+00  9.239880e-01
 1.077503e+00  9.224972e-01
 1.078959e+00  9.210407e-01
 1.080380e+00  9.196203e-01
 1.081762e+00  9.182377e-01
 1.083105e+00  9.168947e-01
 1.084407e+00  9.155929e-01
 1.085666e+00  9.143340e-01
 1.086880e+00  9.131196e-01
 1.088049e+00  9.119511e-01
 1.089170e+00  9.108299e-01
 1.090242e+00  9.097576e-01
 1.091265e+00  9.087355e-01
 1.092235e+00  9.077647e-01
 1.093153e+00  9.068466e-01
 1.094018e+00  9.059822e-01
 1.094827e+00  9.051726e-01
 1.095581e+00  9.044189e-01
 1.096278e+00  9.037220e-01
 1.096917e+00  9.030828e-01
 1.097498e+00  9.025020e-01
 1.098020e+00  9.019804e-01
 1.098481e+00  9.015186e-01
 1.098883e+00  9.011172e-01
 1.099223e+00  9.007767e-01
 1.099502e+00  9.004976e-01
 1.099720e+00  9.002801e-01
 1.099875e+00  9.001245e-01
 1.099969e+00  9.000311e-01
 1.100000e+00  9.000000e-01
 1.000000e+00  1.000000e+00
 1.000031e+00  9.999689e-01
 1.000125e+00  9.998755e-01
 1.000280e+00  9.997199e-01
 1.000498e+00  9.995024e-01
 1.000777e+00  9.992233e-01
 1.001117e+00  9.988828e-01
 1.001519e+00  9.984814e-01
 1.001980e+00  9.980196e-01
 1.002502e+00  9.974980e-01
 1.003083e+00  9.969172e-01
 1.003722e+00  9.962780e-01
 1.004419e+00  9.955811e-01
 1.005173e+00  9.948274e-01
 1.005982e+00  9.940178e-01
 1.006847e+00  9.931534e-01
 1.007765e+00  9.922353e-01
 1.008735e+00  9.912645e-01
 1.009758e+00  9.902424e-01
 1.010830e+00  9.891701e-01
 1.011951e+00  9.880489e-01
 1.013120e+00  9.868804e-01
 1.014334e+00  9.856660e-01
 1.015593e+00  9.844071e-01
 1.016895e+00  9.831053e-01
 1.018238e+00  9.817623e-01
 1.019620e+00  9.803797e-01
 1.021041e+00  9.789593e-01
 1.022497e+00  9.775028e-01
 1.023988e+00  9.760120e-01
 1.025511e+00  9.744888e-01
 1.027065e+00  9.729351e-01
 1.028647e+00  9.713528e-01
 1.030256e+00  9.697439e-01
 1.031890e+00  9.681105e-01
 1.033546e+00  9.664544e-01
 1.035222e+00  9.647779e-01
 1.036917e+00  9.630830e-01
 1.038628e+00  9.613717e-01
 1.040354e+00  9.596463e-01
 1.042091e+00  9.579089e-01
 1.043838e+00  9.561616e-01
 1.045593e+00  9.544066e-01
 1.047354e+00  9.526462e-01
 1.049118e+00  9.508824e-01
 1.050882e+00  9.491176e-01
 1.052646e+00  9.473538e-01
 1.054407e+00  9.455934e-01
 1.056162e+00  9.438384e-01
 1.057909e+00  9.420911e-01
 1.059646e+00  9.403537e-01
 1.061372e+00  9.386283e-01
 1.063083e+00  9.369170e-01
 1.064778e+00  9.352221e-01
 1.066454e+00  9.335456e-01
 1.068110e+00  9.318895e-01
 1.069744e+00  9.302561e-01
 1.071353e+00  9.286472e-01
 1.072935e+00  9.270649e-01
 1.074489e+00  9.255112e-01
 1.076012e+00  9.239880e-01
 1.077503e+00  9.224972e-01
 1.078959e+00  9.210407e-01
 1.080380e+00  9.196203e-01
 1.081762e+00  9.182377e-01
 1.083105e+00  9.168947e-01
 1.084407e+00  9.155929e-01
 1.085666e+00  9.143340e-01
 1.086880e+00  9.131196e-01
 1.088049e+00  9.119511e-01
 1.089170e+00  9.108299e-01
 1.090242e+00  9.097576e-01
 1.091265e+00  9.087355e-01
 1.092235e+00  9.077647e-01
 1.093153e+00  9.068466e-01
 1.094018e+00  9.059822e-01
 1.094827e+00  9.051726e-01
 1.095581e+00  9.044189e-01
 1.096278e+00  9.037220e-01
 1.096917e+00  9.030828e-01
 1.097498e+00  9.025020e-01
 1.098020e+00  9.019804e-01
 1.098481e+00  9.015186e-01
 1.098883e+00  9.011172e-01
 1.099223e+00  9.007767e-01
 1.099502e+00  9.004976e-01
 1.099720e+00  9.002801e-01
 1.099875e+00  9.001245e-01
 1.099969e+00  9.000311e-01
 1.100000e+00  9.000000e-01
 1.000000e+00  1.000000e+00
 1.000031e+00  9.999689e-01
 1.000125e+00  9.998755e-01
 1.000280e+00  9.997199e-01
 1.000498e+00  9.995024e-01
 1.000777e+00  9.992233e-01
 1.001117e+00  9.988828e-01
 1.001519e+00  9.984814e-01
 1.001980e+00  9.980196e-01
 1.002502e+00  9.974980e-01
 1.003083e+00  9.969172e-01
 1.003722e+00  9.962780e-01
 1.004419e+00  9.955811e-01
 1.005173e+00  9.948274e-01
 1.005982e+00  9.940178e-01
 1.006847e+00  9.931534e-01
 1.007765e+00  9.922353e-01
 1.008735e+00  9.912645e-01
 1.009758e+00  9.902424e-01
 1.010830e+00  9.891701e-01
 1.011951e+00  9.880489e-01
 1.013120e+00  9.868804e-01
 1.014334e+00  9.856660e-01
 1.015593e+00  9.844071e-01
 1.016895e+00  9.831053e-01
 1.018238e+00  9.817623e-01
 1.019620e+00  9.803797e-01
 1.021041e+00  9.789593e-01
 1.022497e+00  9.775028e-01
 1.023988e+00  9.760120e-01
 1.025511e+00  9.744888e-01
 1.027065e+00  9.729351e-01
 1.028647e+00  9.713528e-01
 1.030256e+00  9.697439e-01
 1.031890e+00  9.681105e-01
 1.033546e+00  9.664544e-01
 1.035222e+00  9.647779e-01
 1.036917e+00  9.630830e-01
 1.038628e+00  9.613717e-01
 1.040354e+00  9.596463e-01
 1.042091e+00  9.579089e-01
 1.043838e+00  9.561616e-01
 1.045593e+00  9.544066e-01
 1.047354e+00  9.526462e-01
 1.049118e+00  9.508824e-01
 1.050882e+00  9.491176e-01
 1.052646e+00  9.473538e-01
 1.054407e+00  9.455934e-01
 1.056162e+00  9.438384e-01
 1.057909e+00  9.420911e-01
 1.059646e+00  9.403537e-01
 1.061372e+00  9.386283e-01
 1.063083e+00  9.369170e-01
 1.064778e+00  9.352221e-01
 1.066454e+00  9.335456e-01
 1.068110e+00  9.318895e-01
 1.069744e+00  9.302561e-01
 1.071353e+00  9.286472e-01
 1.072935e+00  9.270649e-01
 1.074489e+00  9.255112e-01
 1.076012e+00  9.239880e-01
 1.077503e+00  9.224972e-01
 1.078959e+00  9.210407e-01
 1.080380e+00  9.196203e-01
 1.081762e+00  9.182377e-01
 1.083105e+00  9.168947e-01
 1.084407e+00  9.155929e-01
 1.085666e+00  9.143340e-01
 1.086880e+00  9.131196e-01
 1.088049e+00  9.119511e-01
 1.089170e+00  9.108299e-01
 1.090242e+00  9.097576e-01
 1.091265e+00  9.087355e-01
 1.092235e+00  9.077647e-01
 1.093153e+00  9.068466e-01
 1.094018e+00  9.059822e-01
 1.094827e+00  9.051726e-01
 1.095581e+00  9.044189e-01
 1.096278e+00  9.037220e-01
 1.096917e+00  9.030828e-01
 1.097498e+00  9.025020e-01
 1.098020e+00  9.019804e-01
 1.098481e+00  9.015186e-01
 1.098883e+00  9.011172e-01
 1.099223e+00  9.007767e-01
 1.099502e+00  9.004976e-01
 1.099720e+00  9.002801e-01
 1.099875e+00  9.001245e-01
 1.099969e+00  9.000311e-01
 1.100000e+00  9.000000e-01
 1.000000e+00  1.000000e+00
 1.000031e+00  9.999689e-01
 1.000125e+00  9.998755e-01
 1.000280e+00  9.997199e-01
 1.000498e+00  9.995024e-01
 1.000777e+00  9.992233e-01
 1.001117e+00  9.988828e-01
 1.001519e+00  9.984814e-01
 1.001980e+00  9.980196e-01
 1.002502e+00  9.974980e-01
 1.003083e+00  9.969172e-01
 1.003722e+00  9.962780e-01
 1.004419e+00  9.955811e-01
 1.005173e+00  9.948274e-01
 1.005982e+00  9.940178e-01
 1.006847e+00  9.931534e-01
 1.007765e+00  9.922353e-01
 1.008735e+00  9.912645e-01
 1.009758e+00  9.902424e-01
 1.010830e+00  9.891701e-01
 1.011951e+00  9.880489e-01
 1.013120e+00  9.868804e-01
 1.014334e+00  9.856660e-01
 1.015593e+00  9.844071e-01
 1.016895e+00  9.831053e-01
 1.018238e+00  9.817623e-01
 1.019620e+00  9.803797e-01
 1.021041e+00  9.789593e-01
 1.022497e+00  9.775028e-01
 1.023988e+00  9.760120e-01
 1.025511e+00  9.744888e-01
 1.027065e+00  9.729351e-01
 1.028647e+00  9.713528e-01
 1.030256e+00  9.697439e-01
 1.031890e+00  9.681105e-01
 1.033546e+00  9.664544e-01
 1.035222e+00  9.647779e-01
 1.036917e+00  9.630830e-01
 1.038628e+00  9.613717e-01
 1.040354e+00  9.596463e-01
 1.042091e+00  9.579089e-01
 1.043838e+00  9.561616e-01
 1.045593e+00  9.544066e-01
 1.047354e+00  9.526462e-01
 1.049118e+00  9.508824e-01
 1.050882e+00  9.491176e-01
 1.052646e+00  9.473538e-01
 1.054407e+00  9.455934e-01
 1.056162e+00  9.438384e-01
 1.057909e+00  9.420911e-01
 1.059646e+00  9.403537e-01
 1.061372e+00  9.386283e-01
 1.063083e+00  9.369170e-01
 1.064778e+00  9.352221e-01
 1.066454e+00  9.335456e-01
 1.068110e+00  9.318895e-01
 1.069744e+00  9.302561e-01
 1.071353e+00  9.286472e-01
 1.072935e+00  9.270649e-01
 1.074489e+00  9.255112e-01
 1.076012e+00  9.239880e-01
 1.077503e+00  9.224972e-01
 1.078959e+00  9.210407e-01
 1.080380e+00  9.196203e-01
 1.081762e+00  9.182377e-01
 1.083105e+00  9.168947e-01
 1.084407e+00  9.155929e-01
 1.085666e+00  9.143340e-01
 1.086880e+00  9.131196e-01
 1.088049e+00  9.119511e-01
 1.089170e+00  9.108299e-01
 1.090242e+00  9.097576e-01
 1.091265e+00  9.087355e-01
 1.092235e+00  9.077647e-01
 1.093153e+00  9.068466e-01
 1.094018e+00  9.059822e-01
 1.094827e+00  9.051726e-01
 1.095581e+00  9.044189e-01
 1.096278e+00  9.037220e-01
 1.096917e+00  9.030828e-01
 1.097498e+00  9.025020e-01
 1.098020e+00  9.019804e-01
 1.098481e+00  9.015186e-01
 1.098883e+00  9.011172e-01
 1.099223e+00  9.007767e-01
 1.099502e+00  9.004976e-01
 1.099720e+00  9.002801e-01
 1.099875e+00  9.001245e-01
 1.099969e+00  9.000311e-01
 1.100000e+00  9.000000e-01
 1.000000e+00  1.000000e+00
 1.000031e+00  9.999689e-01
 1.000125e+00  9.998755e-01
 1.000280e+00  9.997199e-01
 1.000498e+00  9.995024e-01
 1.000777e+00  9.992233e-01
 1.001117e+00  9.988828e-01
 1.001519e+00  9.984814e-01
 1.001980e+00  9.980196e-01
 1.002502e+00  9.974980e-01
 1.003083e+00  9.969172e-01
 1.003722e+00  9.962780e-01
 1.004419e+00  9.955811e-01
 1.005173e+00  9.948274e-01
 1.005982e+00  9.940178e-01
 1.006847e+00  9.931534e-01
 1.007765e+00  9.922353e-01
 1.008735e+00  9.912645e-01
 1.009758e+00  9.902424e-01
 1.010830e+00  9.891701e-01
 1.011951e+00  9.880489e-01
 1.013120e+00  9.868804e-01
 1.014334e+00  9.856660e-01
 1.015593e+00  9.844071e-01
 1.016895e+00  9.831053e-01
 1.018238e+00  9.817623e-01
 1.019620e+00  9.803797e-01
 1.021041e+00  9.789593e-01
 1.022497e+00  9.775028e-01
 1.023988e+00  9.760120e-01
 1.025511e+00  9.744888e-01
 1.027065e+00  9.729351e-01
 1.028647e+00  9.713528e-01
 1.030256e+00  9.697439e-01
 1.031890e+00  9.681105e-01
 1.033546e+00  9.664544e-01
 1.035222e+00  9.647779e-01
 1.036917e+00  9.630830e-01
 1.038628e+00  9.613717e-01
 1.040354e+00  9.596463e-01
 1.042091e+00  9.579089e-01
 1.043838e+00  9.561616e-01
 1.045593e+00  9.544066e-01
 1.047354e+00  9.526462e-01
 1.049118e+00  9.508824e-01
 1.050882e+00  9.491176e-01
 1.052646e+00  9.473538e-01
 1.054407e+00  9.455934e-01
 1.056162e+00  9.438384e-01
 1.057909e+00  9.420911e-01
 1.059646e+00  9.403537e-01
 1.061372e+00  9.386283e-01
 1.063083e+00  9.369170e-01
 1.064778e+00  9.352221e-01
 1.066454e+00  9.335456e-01
 1.068110e+00  9.318895e-01
 1.069744e+00  9.302561e-01
 1.071353e+00  9.286472e-01
 1.072935e+00  9.270649e-01
 1.074489e+00  9.255112e-01
 1.076012e+00  9.239880e-01
 1.077503e+00  9.224972e-01
 1.078959e+00  9.210407e-01
 1.080380e+00  9.196203e-01
 1.081762e+00  9.182377e-01
 1.083105e+00  9.168947e-01
 1.084407e+00  9.155929e-01
 1.085666e+00  9.143340e-01
 1.086880e+00  9.131196e-01
 1.088049e+00  9.119511e-01
 1.089170e+00  9.108299e-01
 1.090242e+00  9.097576e-01
 1.091265e+00  9.087355e-01
 1.092235e+00  9.077647e-01
 1.093153e+00  9.068466e-01
 1.094018e+00  9.059822e-01
 1.094827e+00  9.051726e-01
 1.095581e+00  9.044189e-01
 1.096278e+00  9.037220e-01
 1.096917e+00  9.030828e-01
 1.097498e+00  9.025020e-01
 1.098020e+00  9.019804e-01
 1.098481e+00  9.015186e-01
 1.098883e+00  9.011172e-01
 1.099223e+00  9.007767e-01
 1.099502e+00  9.004976e-01
 1.099720e+00  9.002801e-01
 1.099875e+00  9.001245e-01
 1.099969e+00  9.000311e-01
 1.100000e+00  9.000000e-01
 1.000000e+00  1.000000e+00
 1.000031e+00  9.999689e-01
 1.000125e+00  9.998755e-01
 1.000280e+00  9.997199e-01
 1.000498e+00  9.995024e-01
 1.000777e+00  9.992233e-01
 1.001117e+00  9.988828e-01
 1.001519e+00  9.984814e-01
 1.001980e+00  9.980196e-01
 1.002502e+00  9.974980e-01
 1.003083e+00  9.969172e-01
 1.003722e+00  9.962780e-01
 1.004419e+00  9.955811e-01
 1.005173e+00  9.948274e-01
 1.005982e+00  9.940178e-01
 1.006847e+00  9.931534e-01
 1.007765e+00  9.922353e-01
 1.008735e+00  9.912645e-01
 1.009758e+00  9.902424e-01
 1.010830e+00  9.891701e-01
 1.011951e+00  9.880489e-01
 1.013120e+00  9.868804e-01
 1.014334e+00  9.856660e-01
 1.015593e+00  9.844071e-01
 1.016895e+00  9.831053e-01
 1.018238e+00  9.817623e-01
 1.019620e+00  9.803797e-01
 1.021041e+00  9.789593e-01
 1.022497e+00  9.775028e-01
 1.023988e+00  9.760120e-01
 1.025511e+00  9.744888e-01
 1.027065e+00  9.729351e-01
 1.028647e+00  9.713528e-01
 1.030256e+00  9.697439e-01
 1.031890e+00  9.681105e-01
 1.033546e+00  9.664544e-01
 1.035222e+00  9.647779e-01
 1.036917e+00  9.630830e-01
 1.038628e+00  9.613717e-01
 1.040354e+00  9.596463e-01
 1.042091e+00  9.579089e-01
 1.043838e+00  9.561616e-01
 1.045593e+00  9.544066e-01
 1.047354e+00  9.526462e-01
 1.049118e+00  9.508824e-01
 1.050882e+00  9.491176e-01
 1.052646e+00  9.473538e-01
 1.054407e+00  9.455934e-01
 1.056162e+00  9.438384e-01
 1.057909e+00  9.420911e-01
 1.059646e+00  9.403537e-01
 1.061372e+00  9.386283e-01
 1.063083e+00  9.369170e-01
 1.064778e+00  9.352221e-01
 1.066454e+00  9.335456e-01
 1.068110e+00  9.318895e-01
 1.069744e+00  9.302561e-01
 1.071353e+00  9.286472e-01
 1.072935e+00  9.270649e-01
 1.074489e+00  9.255112e-01
 1.076012e+00  9.239880e-01
 1.077503e+00  9.224972e-01
 1.078959e+00  9.210407e-01
 1.080380e+00  9.196203e-01
 1.081762e+00  9.182377e-01
 1.083105e+00  9.168947e-01
 1.084407e+00  9.155929e-01
 1.085666e+00  9.143340e-01
 1.086880e+00  9.131196e-01
 1.088049e+00  9.119511e-01
 1.089170e+00  9.108299e-01
 1.090242e+00  9.097576e-01
 1.091265e+00  9.087355e-01
 1.092235e+00  9.077647e-01
 1.093153e+00  9.068466e-01
 1.094018e+00  9.059822e-01
 1.094827e+00  9.051726e-01
 1.095581e+00  9.044189e-01
 1.096278e+00  9.037220e-01
 1.096917e+00  9.030828e-01
 1.097498e+00  9.025020e-01
 1.098020e+00  9.019804e-01
 1.098481e+00  9.015186e-01
 1.098883e+00  9.011172e-01
 1.099223e+00  9.007767e-01
 1.099502e+00  9.004976e-01
 1.099720e+00  9.002801e-01
 1.099875e+00  9.001245e-01
 1.099969e+00  9.000311e-01
 1.100000e+00  9.000000e-01
 1.000000e+00  1.000000e+00
 1.000031e+00  9.999689e-01
 1.000125e+00  9.998755e-01
 1.000280e+00  9.997199e-01
 1.000498e+00  9.995024e-01
 1.000777e+00  9.992233e-01
 1.001117e+00  9.988828e-01
 1.001519e+00  9.984814e-01
 1.001980e+00  9.980196e-01
 1.002502e+00  9.974980e-01
 1.003083e+00  9.969172e-01
 1.003722e+00  9.962780e-01
 1.004419e+00  9.955811e-01
 1.005173e+00  9.948274e-01
 1.005982e+00  9.940178e-01
 1.006847e+00  9.931534e-01
 1.007765e+00  9.922353e-01
 1.008735e+00  9.912645e-01
 1.009758e+00  9.902424e-01
 1.010830e+00  9.891701e-01
 1.011951e+00  9.880489e-01
 1.013120e+00  9.868804e-01
 1.014334e+00  9.856660e-01
 1.015593e+00  9.844071e-01
 1.016895e+00  9.831053e-01
 1.018238e+00  9.817623e-01
 1.019620e+00  9.803797e-01
 1.021041e+00  9.789593e-01
 1.022497e+00  9.775028e-01
 1.023988e+00  9.760120e-01
 1.025511e+00  9.744888e-01
 1.027065e+00  9.729351e-01
 1.028647e+00  9.713528e-01
 1.030256e+00  9.697439e-01
 1.031890e+00  9.681105e-01
 1.033546e+00  9.664544e-01
 1.035222e+00  9.647779e-01
 1.036917e+00  9.630830e-01
 1.038628e+00  9.613717e-01
 1.040354e+00  9.596463e-01
 1.042091e+00  9.579089e-01
 1.043838e+00  9.561616e-01
 1.045593e+00  9.544066e-01
 1.047354e+00  9.526462e-01
 1.049118e+00  9.508824e-01
 1.050882e+00  9.491176e-01
 1.052646e+00  9.473538e-01
 1.054407e+00  9.455934e-01
 1.056162e+00  9.438384e-01
 1.057909e+00  9.420911e-01
 1.059646e+00  9.403537e-01
 1.061372e+00  9.386283e-01
 1.063083e+00  9.369170e-01
 1.064778e+00  9.352221e-01
 1.066454e+00  9.335456e-01
 1.068110e+00  9.318895e-01
 1.069744e+00  9.302561e-01
 1.071353e+00  9.286472e-01
 1.072935e+00  9.270649e-01
 1.074489e+00  9.255112e-01
 1.076012e+00  9.239880e-01
 1.077503e+00  9.224972e-01
 1.078959e+00  9.210407e-01
 1.080380e+00  9.196203e-01
 1.081762e+00  9.182377e-01
 1.083105e+00  9.168947e-01
 1.084407e+00  9.155929e-01
 1.085666e+00  9.143340e-01
 1.086880e+00  9.131196e-01
 1.088049e+00  9.119511e-01
 1.089170e+00  9.108299e-01
 1.090242e+00  9.097576e-01
 1.091265e+00  9.087355e-01
 1.092235e+00  9.077647e-01
 1.093153e+00  9.068466e-01
 1.094018e+00  9.059822e-01
 1.094827e+00  9.051726e-01
 1.095581e+00  9.044189e-01
 1.096278e+00  9.037220e-01
 1.096917e+00  9.030828e-01
 1.097498e+00  9.025020e-01
 1.098020e+00  9.019804e-01
 1.098481e+00  9.015186e-01
 1.098883e+00  9.011172e-01
 1.099223e+00  9.007767e-01
 1.099502e+00  9.004976e-01
 1.099720e+00  9.002801e-01
 1.099875e+00  9.001245e-01
 1.099969e+00  9.000311e-01
 1.100000e+00  9.000000e-01
 1.000000e+00  1.000000e+00
 1.000031e+00  9.999689e-01
 1.000125e+00  9.998755e-01
 1.000280e+00  9.997199e-01
 1.000498e+00  9.995024e-01
 1.000777e+00  9.992233e-01
 1.001117e+00  9.988828e-01
 1.001519e+00  9.984814e-01
 1.001980e+00  9.980196e-01
 1.002502e+00  9.974980e-01
 1.003083e+00  9.969172e-01
 1.003722e+00  9.962780e-01
 1.004419e+00  9.955811e-01
 1.005173e+00  9.948274e-01
 1.005982e+00  9.940178e-01
 1.006847e+00  9.931534e-01
 1.007765e+00  9.922353e-01
 1.008735e+00  9.912645e-01
 1.009758e+00  9.902424e-01
 1.010830e+00  9.891701e-01
 1.011951e+00  9.880489e-01
 1.013120e+00  9.868804e-01
 1.014334e+00  9.856660e-01
 1.015593e+00  9.844071e-01
 1.016895e+00  9.831053e-01
 1.018238e+00  9.817623e-01
 1.019620e+00  9.803797e-01
 1.021041e+00  9.789593e-01
 1.022497e+00  9.775028e-01
 1.023988e+00  9.760120e-01
 1.025511e+00  9.744888e-01
 1.027065e+00  9.729351e-01
 1.028647e+00  9.713528e-01
 1.030256e+00  9.697439e-01
 1.031890e+00  9.681105e-01
 1.033546e+00  9.664544e-01
 1.035222e+00  9.647779e-01
 1.036917e+00  9.630830e-01
 1.038628e+00  9.613717e-01
 1.040354e+00  9.596463e-01
 1.042091e+00  9.579089e-01
 1.043838e+00  9.561616e-01
 1.045593e+00  9.544066e-01
 1.047354e+00  9.526462e-01
 1.049118e+00  9.508824e-01
 1.050882e+00  9.491176e-01
 1.052646e+00  9.473538e-01
 1.054407e+00  9.455934e-01
 1.056162e+00  9.438384e-01
 1.057909e+00  9.420911e-01
 1.059646e+00  9.403537e-01
 1.061372e+00  9.386283e-01
 1.063083e+00  9.369170e-01
 1.064778e+00  9.352221e-01
 1.066454e+00  9.335456e-01
 1.068110e+00  9.318895e-01
 1.069744e+00  9.302561e-01
 1.071353e+00  9.286472e-01
 1.072935e+00  9.270649e-01
 1.074489e+00  9.255112e-01
 1.076012e+00  9.239880e-01
 1.077503e+00  9.224972e-01
 1.078959e+00  9.210407e-01
 1.080380e+00  9.196203e-01
 1.081762e+00  9.182377e-01
 1.083105e+00  9.168947e-01
 1.084407e+00  9.155929e-01
 1.085666e+00  9.143340e-01
 1.086880e+00  9.131196e-01
 1.088049e+00  9.119511e-01
 1.089170e+00  9.108299e-01
 1.090242e+00  9.097576e-01
 1.091265e+00  9.087355e-01
 1.092235e+00  9.077647e-01
 1.093153e+00  9.068466e-01
 1.094018e+00  9.059822e-01
 1.094827e+00  9.051726e-01
 1.095581e+00  9.044189e-01
 1.096278e+00  9.037220e-01
 1.096917e+00  9.030828e-01
 1.097498e+00  9.025020e-01
 1.098020e+00  9.019804e-01
 1.098481e+00  9.015186e-01
 1.098883e+00  9.011172e-01
 1.099223e+00  9.007767e-01
 1.099502e+00  9.004976e-01
 1.099720e+00  9.002801e-01
 1.099875e+00  9.001245e-01
 1.099969e+00  9.000311e-01
 1.100000e+00  9.000000e-01
 1.000000e+00  1.000000e+00
 1.000031e+00  9.999689e-01
 1.000125e+00  9.998755e-01
 1.000280e+00  9.997199e-01
 1.000498e+00  9.995024e-01
 1.000777e+00  9.992233e-01
 1.001117e+00  9.988828e-01
 1.001519e+00  9.984814e-01
 1.001980e+00  9.980196e-01
 1.002502e+00  9.974980e-01
 1.003083e+00  9.969172e-01
 1.003722e+00  9.962780e-01
 1.004419e+00  9.955811e-01
 1.005173e+00  9.948274e-01
 1.005982e+00  9.940178e-01
 1.006847e+00  9.931534e-01
 1.007765e+00  9.922353e-01
 1.008735e+00  9.912645e-01
 1.009758e+00  9.902424e-01
 1.010830e+00  9.891701e-01
 1.011951e+00  9.880489e-01
 1.013120e+00  9.868804e-01
 1.014334e+00  9.856660e-01
 1.015593e+00  9.844071e-01
 1.016895e+00  9.831053e-01
 1.018238e+00  9.817623e-01
 1.019620e+00  9.803797e-01
 1.021041e+00  9.789593e-01
 1.022497e+00  9.775028e-01
 1.023988e+00  9.760120e-01
 1.025511e+00  9.744888e-01
 1.027065e+00  9.729351e-01
 1.028647e+00  9.713528e-01
 1.030256e+00  9.697439e-01
 1.031890e+00  9.681105e-01
 1.033546e+00  9.664544e-01
 1.035222e+00  9.647779e-01
 1.036917e+00  9.630830e-01
 1.038628e+00  9.613717e-01
 1.040354e+00  9.596463e-01
 1.042091e+00  9.579089e-01
 1.043838e+00  9.561616e-01
 1.045593e+00  9.544066e-01
 1.047354e+00  9.526462e-01
 1.049118e+00  9.508824e-01
 1.050882e+00  9.491176e-01
 1.052646e+00  9.473538e-01
 1.054407e+00  9.455934e-01
 1.056162e+00  9.438384e-01
 1.057909e+00  9.420911e-01
 1.059646e+00  9.403537e-01
 1.061372e+00  9.386283e-01
 1.063083e+00  9.369170e-01
 1.064778e+00  9.352221e-01
 1.066454e+00  9.335456e-01
 1.068110e+00  9.318895e-01
 1.069744e+00  9.302561e-01
 1.071353e+00  9.286472e-01
 1.072935e+00  9.270649e-01
 1.074489e+00  9.255112e-01
 1.076012e+00  9.239880e-01
 1.077503e+00  9.224972e-01
 1.078959e+00  9.210407e-01
 1.080380e+00  9.196203e-01
 1.081762e+00  9.182377e-01
 1.083105e+00  9.168947e-01
 1.084407e+00  9.155929e-01
 1.085666e+00  9.143340e-01
 1.086880e+00  9.131196e-01
 1.088049e+00  9.119511e-01
 1.089170e+00  9.108299e-01
 1.090242e+00  9.097576e-01
 1.091265e+00  9.087355e-01
 1.092235e+00  9.077647e-01
 1.093153e+00  9.068466e-01
 1.094018e+00  9.059822e-01
 1.094827e+00  9.051726e-01
 1.095581e+00  9.044189e-01
 1.096278e+00  9.037220e-01
 1.096917e+00  9.030828e-01
 1.097498e+00  9.025020e-01
 1.098020e+00  9.019804e-01
 1.098481e+00  9.015186e-01
 1.098883e+00  9.011172e-01
 1.099223e+00  9.007767e-01
 1.099502e+00  9.004976e-01
 1.099720e+00  9.002801e-01
 1.099875e+00  9.001245e-01
 1.099969e+00  9.000311e-01
 1.100000e+00  9.000000e-01
 1.000000e+00  1.000000e+00
 1.000031e+00  9.999689e-01
 1.000125e+00  9.998755e-01
 1.000280e+00  9.997199e-01
 1.000498e+00  9.995024e-01
 1.000777e+00  9.992233e-01
 1.001117e+00  9.988828e-01
 1.001519e+00  9.984814e-01
 1.001980e+00  9.980196e-01
 1.002502e+00  9.974980e-01
 1.003083e+00  9.969172e-01
 1.003722e+00  9.962780e-01
 1.004419e+00  9.955811e-01
 1.005173e+00  9.948274e-01
 1.005982e+00  9.940178e-01
 1.006847e+00  9.931534e-01
 1.007765e+00  9.922353e-01
 1.008735e+00  9.912645e-01
 1.009758e+00  9.902424e-01
 1.010830e+00  9.891701e-01
 1.011951e+00  9.880489e-01
 1.013120e+00  9.868804e-01
 1.014334e+00  9.856660e-01
 1.015593e+00  9.844071e-01
 1.016895e+00  9.831053e-01
 1.018238e+00  9.817623e-01
 1.019620e+00  9.803797e-01
 1.021041e+00  9.789593e-01
 1.022497e+00  9.775028e-01
 1.023988e+00  9.760120e-01
 1.025511e+00  9.744888e-01
 1.027065e+00  9.729351e-01
 1.028647e+00  9.713528e-01
 1.030256e+00  9.697439e-01
 1.031890e+00  9.681105e-01
 1.033546e+00  9.664544e-01
 1.035222e+00  9.647779e-01
 1.036917e+00  9.630830e-01
 1.038628e+00  9.613717e-01
 1.040354e+00  9.596463e-01
 1.042091e+00  9.579089e-01
 1.043838e+00  9.561616e-01
 1.045593e+00  9.544066e-01
 1.047354e+00  9.526462e-01
 1.049118e+00  9.508824e-01
 1.050882e+00  9.491176e-01
 1.052646e+00  9.473538e-01
 1.054407e+00  9.455934e-01
 1.056162e+00  9.438384e-01
 1.057909e+00  9.420911e-01
 1.059646e+00  9.403537e-01
 1.061372e+00  9.386283e-01
 1.063083e+00  9.369170e-01
 1.064778e+00  9.352221e-01
 1.066454e+00  9.335456e-01
 1.068110e+00  9.318895e-01
 1.069744e+00  9.302561e-01
 1.071353e+00  9.286472e-01
 1.072935e+00  9.270649e-01
 1.074489e+00  9.255112e-01
 1.076012e+00  9.239880e-01
 1.077503e+00  9.224972e-01
 1.078959e+00  9.210407e-01
 1.080380e+00  9.196203e-01
 1.081762e+00  9.182377e-01
 1.083105e+00  9.168947e-01
 1.084407e+00  9.155929e-01
 1.085666e+00  9.143340e-01
 1.086880e+00  9.131196e-01
 1.088049e+00  9.119511e-01
 1.089170e+00  9.108299e-01
 1.090242e+00  9.097576e-01
 1.091265e+00  9.087355e-01
 1.092235e+00  9.077647e-01
 1.093153e+00  9.068466e-01
 1.094018e+00  9.059822e-01
 1.094827e+00  9.051726e-01
 1.095581e+00  9.044189e-01
 1.096278e+00  9.037220e-01
 1.096917e+00  9.030828e-01
 1.097498e+00  9.025020e-01
 1.098020e+00  9.019804e-01
 1.098481e+00  9.015186e-01
 1.098883e+00  9.011172e-01
 1.099223e+00  9.007767e-01
 1.099502e+00  9.004976e-01
 1.099720e+00  9.002801e-01
 1.099875e+00  9.001245e-01
 1.099969e+00  9.000311e-01
 1.100000e+00  9.000000e-01
 1.000000e+00  1.000000e+00
 1.000031e+00  9.999689e-01
 1.000125e+00  9.998755e-01
 1.000280e+00  9.997199e-01
 1.000498e+00  9.995024e-01
 1.000777e+00  9.992233e-01
 1.001117e+00  9.988828e-01
 1.001519e+00  9.984814e-01
 1.001980e+00  9.980196e-01
 1.002502e+00  9.974980e-01
 1.003083e+00  9.969172e-01
 1.003722e+00  9.962780e-01
 1.004419e+00  9.955811e-01
 1.005173e+00  9.948274e-01
 1.005982e+00  9.940178e-01
 1.006847e+00  9.931534e-01
 1.007765e+00  9.922353e-01
 1.008735e+00  9.912645e-01
 1.009758e+00  9.902424e-01
 1.010830e+00  9.891701e-01
 1.011951e+00  9.880489e-01
 1.013120e+00  9.868804e-01
 1.014334e+00  9.856660e-01
 1.015593e+00  9.844071e-01
 1.016895e+00  9.831053e-01
 1.018238e+00  9.817623e-01
 1.019620e+00  9.803797e-01
 1.021041e+00  9.789593e-01
 1.022497e+00  9.775028e-01
 1.023988e+00  9.760120e-01
 1.025511e+00  9.744888e-01
 1.027065e+00  9.729351e-01
 1.028647e+00  9.713528e-01
 1.030256e+00  9.697439e-01
 1.031890e+00  9.681105e-01
 1.033546e+00  9.664544e-01
 1.035222e+00  9.647779e-01
 1.036917e+00  9.630830e-01
 1.038628e+00  9.613717e-01
 1.040354e+00  9.596463e-01
 1.042091e+00  9.579089e-01
 1.043838e+00  9.561616e-01
 1.045593e+00  9.544066e-01
 1.047354e+00  9.526462e-01
 1.049118e+00  9.508824e-01
 1.050882e+00  9.491176e-01
 1.052646e+00  9.473538e-01
 1.054407e+00  9.455934e-01
 1.056162e+00  9.438384e-01
 1.057909e+00  9.420911e-01
 1.059646e+00  9.403537e-01
 1.061372e+00  9.386283e-01
 1.063083e+00  9.369170e-01
 1.064778e+00  9.352221e-01
 1.066454e+00  9.335456e-01
 1.068110e+00  9.318895e-01
 1.069744e+00  9.302561e-01
 1.071353e+00  9.286472e-01
 1.072935e+00  9.270649e-01
 1.074489e+00  9.255112e-01
 1.076012e+00  9.239880e-01
 1.077503e+00  9.224972e-01
 1.078959e+00  9.210407e-01
 1.080380e+00  9.196203e-01
 1.081762e+00  9.182377e-01
 1.083105e+00  9.168947e-01
 1.084407e+00  9.155929e-01
 1.085666e+00  9.143340e-01
 1.086880e+00  9.131196e-01
 1.088049e+00  9.119511e-01
 1.089170e+00  9.108299e-01
 1.090242e+00  9.097576e-01
 1.091265e+00  9.087355e-01
 1.092235e+00  9.077647e-01
 1.093153e+00  9.068466e-01
 1.094018e+00  9.059822e-01
 1.094827e+00  9.051726e-01
 1.095581e+00  9.044189e-01
 1.096278e+00  9.037220e-01
 1.096917e+00  9.030828e-01
 1.097498e+00  9.025020e-01
 1.098020e+00  9.019804e-01
 1.098481e+00  9.015186e-01
 1.098883e+00  9.011172e-01
 1.099223e+00  9.007767e-01
 1.099502e+00  9.004976e-01
 1.099720e+00  9.002801e-01
 1.099875e+00  9.001245e-01
 1.099969e+00  9.000311e-01
 1.100000e+00  9.000000e-01
 1.000000e+00  1.000000e+00
 1.000031e+00  9.999689e-01
 1.000125e+00  9.998755e-01
 1.000280e+00  9.997199e-01
 1.000498e+00  9.995024e-01
 1.000777e+00  9.992233e-01
 1.001117e+00  9.988828e-01
 1.001519e+00  9.984814e-01
 1.001980e+00  9.980196e-01
 1.002502e+00  9.974980e-01
 1.003083e+00  9.969172e-01
 1.003722e+00  9.962780e-01
 1.004419e+00  9.955811e-01
 1.005173e+00  9.948274e-01
 1.005982e+00  9.940178e-01
 1.006847e+00  9.931534e-01
 1.007765e+00  9.922353e-01
 1.008735e+00  9.912645e-01
 1.009758e+00  9.902424e-01
 1.010830e+00  9.891701e-01
 1.011951e+00  9.880489e-01
 1.013120e+00  9.868804e-01
 1.014334e+00  9.856660e-01
 1.015593e+00  9.844071e-01
 1.016895e+00  9.831053e-01
 1.018238e+00  9.817623e-01
 1.019620e+00  9.803797e-01
 1.021041e+00  9.789593e-01
 1.022497e+00  9.775028e-01
 1.023988e+00  9.760120e-01
 1.025511e+00  9.744888e-01
 1.027065e+00  9.729351e-01
 1.028647e+00  9.713528e-01
 1.030256e+00  9.697439e-01
 1.031890e+00  9.681105e-01
 1.033546e+00  9.664544e-01
 1.035222e+00  9.647779e-01
 1.036917e+00  9.630830e-01
 1.038628e+00  9.613717e-01
 1.040354e+00  9.596463e-01
 1.042091e+00  9.579089e-01
 1.043838e+00  9.561616e-01
 1.045593e+00  9.544066e-01
 1.047354e+00  9.526462e-01
 1.049118e+00  9.508824e-01
 1.050882e+00  9.491176e-01
 1.052646e+00  9.473538e-01
 1.054407e+00  9.455934e-01
 1.056162e+00  9.438384e-01
 1.057909e+00  9.420911e-01
 1.059646e+00  9.403537e-01
 1.061372e+00  9.386283e-01
 1.063083e+00  9.369170e-01
 1.064778e+00  9.352221e-01
 1.066454e+00  9.335456e-01
 1.068110e+00  9.318895e-01
 1.069744e+00  9.302561e-01
 1.071353e+00  9.286472e-01
 1.072935e+00  9.270649e-01
 1.074489e+00  9.255112e-01
 1.076012e+00  9.239880e-01
 1.077503e+00  9.224972e-01
 1.078959e+00  9.210407e-01
 1.080380e+00  9.196203e-01
 1.081762e+00  9.182377e-01
 1.083105e+00  9.168947e-01
 1.084407e+00  9.155929e-01
 1.085666e+00  9.143340e-01
 1.086880e+00  9.131196e-01
 1.088049e+00  9.119511e-01
 1.089170e+00  9.108299e-01
 1.090242e+00  9.097576e-01
 1.091265e+00  9.087355e-01
 1.092235e+00  9.077647e-01
 1.093153e+00  9.068466e-01
 1.094018e+00  9.059822e-01
 1.094827e+00  9.051726e-01
 1.095581e+00  9.044189e-01
 1.096278e+00  9.037220e-01
 1.096917e+00  9.030828e-01
 1.097498e+00  9.025020e-01
 1.098020e+00  9.019804e-01
 1.098481e+00  9.015186e-01
 1.098883e+00  9.011172e-01
 1.099223e+00  9.007767e-01
 1.099502e+00  9.004976e-01
 1.099720e+00  9.002801e-01
 1.099875e+00  9.001245e-01
 1.099969e+00  9.000311e-01
 1.100000e+00  9.000000e-01
 1.000000e+00  1.000000e+00
 1.000031e+00  9.999689e-01
 1.000125e+00  9.998755e-01
 1.000280e+00  9.997199e-01
 1.000498e+00  9.995024e-01
 1.000777e+00  9.992233e-01
 1.001117e+00  9.988828e-01
 1.001519e+00  9.984814e-01
 1.001980e+00  9.980196e-01
 1.002502e+00  9.974980e-01
 1.003083e+00  9.969172e-01
 1.003722e+00  9.962780e-01
 1.004419e+00  9.955811e-01
 1.005173e+00  9.948274e-01
 1.005982e+00  9.940178e-01
 1.006847e+00  9.931534e-01
 1.007765e+00  9.922353e-01
 1.008735e+00  9.912645e-01
 1.009758e+00  9.902424e-01
 1.010830e+00  9.891701e-01
 1.011951e+00  9.880489e-01
 1.013120e+00  9.868804e-01
 1.014334e+00  9.856660e-01
 1.015593e+00  9.844071e-01
 1.016895e+00  9.831053e-01
 1.018238e+00  9.817623e-01
 1.019620e+00  9.803797e-01
 1.021041e+00  9.789593e-01
 1.022497e+00  9.775028e-01
 1.023988e+00  9.760120e-01
 1.025511e+00  9.744888e-01
 1.027065e+00  9.729351e-01
 1.028647e+00  9.713528e-01
 1.030256e+00  9.697439e-01
 1.031890e+00  9.681105e-01
 1.033546e+00  9.664544e-01
 1.035222e+00  9.647779e-01
 1.036917e+00  9.630830e-01
 1.038628e+00  9.613717e-01
 1.040354e+00  9.596463e-01
 1.042091e+00  9.579089e-01
 1.043838e+00  9.561616e-01
 1.045593e+00  9.544066e-01
 1.047354e+00  9.526462e-01
 1.049118e+00  9.508824e-01
 1.050882e+00  9.491176e-01
 1.052646e+00  9.473538e-01
 1.054407e+00  9.455934e-01
 1.056162e+00  9.438384e-01
 1.057909e+00  9.420911e-01
 1.059646e+00  9.403537e-01
 1.061372e+00  9.386283e-01
 1.063083e+00  9.369170e-01
 1.064778e+00  9.352221e-01
 1.066454e+00  9.335456e-01
 1.068110e+00  9.318895e-01
 1.069744e+00  9.302561e-01
 1.071353e+00  9.286472e-01
 1.072935e+00  9.270649e-01
 1.074489e+00  9.255112e-01
 1.076012e+00  9.239880e-01
 1.077503e+00  9.224972e-01
 1.078959e+00  9.210407e-01
 1.080380e+00  9.196203e-01
 1.081762e+00  9.182377e-01
 1.083105e+00  9.168947e-01
 1.084407e+00  9.155929e-01
 1.085666e+00  9.143340e-01
 1.086880e+00  9.131196e-01
 1.088049e+00  9.119511e-01
 1.089170e+00  9.108299e-01
 1.090242e+00  9.097576e-01
 1.091265e+00  9.087355e-01
 1.092235e+00  9.077647e-01
 1.093153e+00  9.068466e-01
 1.094018e+00  9.059822e-01
 1.094827e+00  9.051726e-01
 1.095581e+00  9.044189e-01
 1.096278e+00  9.037220e-01
 1.096917e+00  9.030828e-01
 1.097498e+00  9.025020e-01
 1.098020e+00  9.019804e-01
 1.098481e+00  9.015186e-01
 1.098883e+00  9.011172e-01
 1.099223e+00  9.007767e-01
 1.099502e+00  9.004976e-01
 1.099720e+00  9.002801e-01
 1.099875e+00  9.001245e-01
 1.099969e+00  9.000311e-01
 1.100000e+00  9.000000e-01
 1.000000e+00  1.000000e+00
 1.000031e+00  9.999689e-01
 1.000125e+00  9.998755e-01
 1.000280e+00  9.997199e-01
 1.000498e+00  9.995024e-01
 1.000777e+00  9.992233e-01
 1.001117e+00  9.988828e-01
 1.001519e+00  9.984814e-01
 1.001980e+00  9.980196e-01
 1.002502e+00  9.974980e-01
 1.003083e+00  9.969172e-01
 1.003722e+00  9.962780e-01
 1.004419e+00  9.955811e-01
 1.005173e+00  9.948274e-01
 1.005982e+00  9.940178e-01
 1.006847e+00  9.931534e-01
 1.007765e+00  9.922353e-01
 1.008735e+00  9.912645e-01
 1.009758e+00  9.902424e-01
 1.010830e+00  9.891701e-01
 1.011951e+00  9.880489e-01
 1.013120e+00  9.868804e-01
 1.014334e+00  9.856660e-01
 1.015593e+00  9.844071e-01
 1.016895e+00  9.831053e-01
 1.018238e+00  9.817623e-01
 1.019620e+00  9.803797e-01
 1.021041e+00  9.789593e-01
 1.022497e+00  9.775028e-01
 1.023988e+00  9.760120e-01
 1.025511e+00  9.744888e-01
 1.027065e+00  9.729351e-01
 1.028647e+00  9.713528e-01
 1.030256e+00  9.697439e-01
 1.031890e+00  9.681105e-01
 1.033546e+00  9.664544e-01
 1.035222e+00  9.647779e-01
 1.036917e+00  9.630830e-01
 1.038628e+00  9.613717e-01
 1.040354e+00  9.596463e-01
 1.042091e+00  9.579089e-01
 1.043838e+00  9.561616e-01
 1.045593e+00  9.544066e-01
 1.047354e+00  9.526462e-01
 1.049118e+00  9.508824e-01
 1.050882e+00  9.491176e-01
 1.052646e+00  9.473538e-01
 1.054407e+00  9.455934e-01
 1.056162e+00  9.438384e-01
 1.057909e+00  9.420911e-01
 1.059646e+00  9.403537e-01
 1.061372e+00  9.386283e-01
 1.063083e+00  9.369170e-01
 1.064778e+00  9.352221e-01
 1.066454e+00  9.335456e-01
 1.068110e+00  9.318895e-01
 1.069744e+00  9.302561e-01
 1.071353e+00  9.286472e-01
 1.072935e+00  9.270649e-01
 1.074489e+00  9.255112e-01
 1.076012e+00  9.239880e-01
 1.077503e+00  9.224972e-01
 1.078959e+00  9.210407e-01
 1.080380e+00  9.196203e-01
 1.081762e+00  9.182377e-01
 1.083105e+00  9.168947e-01
 1.084407e+00  9.155929e-01
 1.085666e+00  9.143340e-01
 1.086880e+00  9.131196e-01
 1.088049e+00  9.119511e-01
 1.089170e+00  9.108299e-01
 1.090242e+00  9.097576e-01
 1.091265e+00  9.087355e-01
 1.092235e+00  9.077647e-01
 1.093153e+00  9.068466e-01
 1.094018e+00  9.059822e-01
 1.094827e+00  9.051726e-01
 1.095581e+00  9.044189e-01
 1.096278e+00  9.037220e-01
 1.096917e+00  9.030828e-01
 1.097498e+00  9.025020e-01
 1.098020e+00  9.019804e-01
 1.098481e+00  9.015186e-01
 1.098883e+00  9.011172e-01
 1.099223e+00  9.007767e-01
 1.099502e+00  9.004976e-01
 1.099720e+00  9.002801e-01
 1.099875e+00  9.001245e-01
 1.099969e+00  9.000311e-01
 1.100000e+00  9.000000e-01
 1.000000e+00  1.000000e+00
 1.000031e+00  9.999689e-01
 1.000125e+00  9.998755e-01
 1.000280e+00  9.997199e-01
 1.000498e+00  9.995024e-01
 1.000777e+00  9.992233e-01
 1.001117e+00  9.988828e-01
 1.001519e+00  9.984814e-01
 1.001980e+00  9.980196e-01
 1.002502e+00  9.974980e-01
 1.003083e+00  9.969172e-01
 1.003722e+00  9.962780e-01
 1.004419e+00  9.955811e-01
 1.005173e+00  9.948274e-01
 1.005982e+00  9.940178e-01
 1.006847e+00  9.931534e-01
 1.007765e+00  9.922353e-01
 1.008735e+00  9.912645e-01
 1.009758e+00  9.902424e-01
 1.010830e+00  9.891701e-01
 1.011951e+00  9.880489e-01
 1.013120e+00  9.868804e-01
 1.014334e+00  9.856660e-01
 1.015593e+00  9.844071e-01
 1.016895e+00  9.831053e-01
 1.018238e+00  9.817623e-01
 1.019620e+00  9.803797e-01
 1.021041e+00  9.789593e-01
 1.022497e+00  9.775028e-01
 1.023988e+00  9.760120e-01
 1.025511e+00  9.744888e-01
 1.027065e+00  9.729351e-01
 1.028647e+00  9.713528e-01
 1.030256e+00  9.697439e-01
 1.031890e+00  9.681105e-01
 1.033546e+00  9.664544e-01
 1.035222e+00  9.647779e-01
 1.036917e+00  9.630830e-01
 1.038628e+00  9.613717e-01
 1.040354e+00  9.596463e-01
 1.042091e+00  9.579089e-01
 1.043838e+00  9.561616e-01
 1.045593e+00  9.544066e-01
 1.047354e+00  9.526462e-01
 1.049118e+00  9.508824e-01
 1.050882e+00  9.491176e-01
 1.052646e+00  9.473538e-01
 1.054407e+00  9.455934e-01
 1.056162e+00  9.438384e-01
 1.057909e+00  9.420911e-01
 1.059646e+00  9.403537e-01
 1.061372e+00  9.386283e-01
 1.063083e+00  9.369170e-01
 1.064778e+00  9.352221e-01
 1.066454e+00  9.335456e-01
 1.068110e+00  9.318895e-01
 1.069744e+00  9.302561e-01
 1.071353e+00  9.286472e-01
 1.072935e+00  9.270649e-01
 1.074489e+00  9.255112e-01
 1.076012e+00  9.239880e-01
 1.077503e+00  9.224972e-01
 1.078959e+00  9.210407e-01
 1.080380e+00  9.196203e-01
 1.081762e+00  9.182377e-01
 1.083105e+00  9.168947e-01
 1.084407e+00  9.155929e-01
 1.085666e+00  9.143340e-01
 1.086880e+00  9.131196e-01
 1.088049e+00  9.119511e-01
 1.089170e+00  9.108299e-01
 1.090242e+00  9.097576e-01
 1.091265e+00  9.087355e-01
 1.092235e+00  9.077647e-01
 1.093153e+00  9.068466e-01
 1.094018e+00  9.059822e-01
 1.094827e+00  9.051726e-01
 1.095581e+00  9.044189e-01
 1.096278e+00  9.037220e-01
 1.096917e+00  9.030828e-01
 1.097498e+00  9.025020e-01
 1.098020e+00  9.019804e-01
 1.098481e+00  9.015186e-01
 1.098883e+00  9.011172e-01
 1.099223e+00  9.007767e-01
 1.099502e+00  9.004976e-01
 1.099720e+00  9.002801e-01
 1.099875e+00  9.001245e-01
 1.099969e+00  9.000311e-01
 1.100000e+00  9.000000e-01
 1.000000e+00  1.000000e+00
 1.000031e+00  9.999689e-01
 1.000125e+00  9.998755e-01
 1.000280e+00  9.997199e-01
 1.000498e+00  9.995024e-01
 1.000777e+00  9.992233e-01
 1.001117e+00  9.988828e-01
 1.001519e+00  9.984814e-01
 1.001980e+00  9.980196e-01
 1.002502e+00  9.974980e-01
 1.003083e+00  9.969172e-01
 1.003722e+00  9.962780e-01
 1.004419e+00  9.955811e-01
 1.005173e+00  9.948274e-01
 1.005982e+00  9.940178e-01
 1.006847e+00  9.931534e-01
 1.007765e+00  9.922353e-01
 1.008735e+00  9.912645e-01
 1.009758e+00  9.902424e-01
 1.010830e+00  9.891701e-01
 1.011951e+00  9.880489e-01
 1.013120e+00  9.868804e-01
 1.014334e+00  9.856660e-01
 1.015593e+00  9.844071e-01
 1.016895e+00  9.831053e-01
 1.018238e+00  9.817623e-01
 1.019620e+00  9.803797e-01
 1.021041e+00  9.789593e-01
 1.022497e+00  9.775028e-01
 1.023988e+00  9.760120e-01
 1.025511e+00  9.744888e-01
 1.027065e+00  9.729351e-01
 1.028647e+00  9.713528e-01
 1.030256e+00  9.697439e-01
 1.031890e+00  9.681105e-01
 1.033546e+00  9.664544e-01
 1.035222e+00  9.647779e-01
 1.036917e+00  9.630830e-01
 1.038628e+00  9.613717e-01
 1.040354e+00  9.596463e-01
 1.042091e+00  9.579089e-01
 1.043838e+00  9.561616e-01
 1.045593e+00  9.544066e-01
 1.047354e+00  9.526462e-01
 1.049118e+00  9.508824e-01
 1.050882e+00  9.491176e-01
 1.052646e+00  9.473538e-01
 1.054407e+00  9.455934e-01
 1.056162e+00  9.438384e-01
 1.057909e+00  9.420911e-01
 1.059646e+00  9.403537e-01
 1.061372e+00  9.386283e-01
 1.063083e+00  9.369170e-01
 1.064778e+00  9.352221e-01
 1.066454e+00  9.335456e-01
 1.068110e+00  9.318895e-01
 1.069744e+00  9.302561e-01
 1.071353e+00  9.286472e-01
 1.072935e+00  9.270649e-01
 1.074489e+00  9.255112e-01
 1.076012e+00  9.239880e-01
 1.077503e+00  9.224972e-01
 1.078959e+00  9.210407e-01
 1.080380e+00  9.196203e-01
 1.081762e+00  9.182377e-01
 1.083105e+00  9.168947e-01
 1.084407e+00  9.155929e-01
 1.085666e+00  9.143340e-01
 1.086880e+00  9.131196e-01
 1.088049e+00  9.119511e-01
 1.089170e+00  9.108299e-01
 1.090242e+00  9.097576e-01
 1.091265e+00  9.087355e-01
 1.092235e+00  9.077647e-01
 1.093153e+00  9.068466e-01
 1.094018e+00  9.059822e-01
 1.094827e+00  9.051726e-01
 1.095581e+00  9.044189e-01
 1.096278e+00  9.037220e-01
 1.096917e+00  9.030828e-01
 1.097498e+00  9.025020e-01
 1.098020e+00  9.019804e-01
 1.098481e+00  9.015186e-01
 1.098883e+00  9.011172e-01
 1.099223e+00  9.007767e-01
 1.099502e+00  9.004976e-01
 1.099720e+00  9.002801e-01
 1.099875e+00  9.001245e-01
 1.099969e+00  9.000311e-01
 1.100000e+00  9.000000e-01
 1.000000e+00  1.000000e+00
 1.000031e+00  9.999689e-01
 1.000125e+00  9.998755e-01
 1.000280e+00  9.997199e-01
 1.000498e+00  9.995024e-01
 1.000777e+00  9.992233e-01
 1.001117e+00  9.988828e-01
 1.001519e+00  9.984814e-01
 1.001980e+00  9.980196e-01
 1.002502e+00  9.974980e-01
 1.003083e+00  9.969172e-01
 1.003722e+00  9.962780e-01
 1.004419e+00  9.955811e-01
 1.005173e+00  9.948274e-01
 1.005982e+00  9.940178e-01
 1.006847e+00  9.931534e-01
 1.007765e+00  9.922353e-01
 1.008735e+00  9.912645e-01
 1.009758e+00  9.902424e-01
 1.010830e+00  9.891701e-01
 1.011951e+00  9.880489e-01
 1.013120e+00  9.868804e-01
 1.014334e+00  9.856660e-01
 1.015593e+00  9.844071e-01
 1.016895e+00  9.831053e-01
 1.018238e+00  9.817623e-01
 1.019620e+00  9.803797e-01
 1.021041e+00  9.789593e-01
 1.022497e+00  9.775028e-01
 1.023988e+00  9.760120e-01
 1.025511e+00  9.744888e-01
 1.027065e+00  9.729351e-01
 1.028647e+00  9.713528e-01
 1.030256e+00  9.697439e-01
 1.031890e+00  9.681105e-01
 1.033546e+00  9.664544e-01
 1.035222e+00  9.647779e-01
 1.036917e+00  9.630830e-01
 1.038628e+00  9.613717e-01
 1.040354e+00  9.596463e-01
 1.042091e+00  9.579089e-01
 1.043838e+00  9.561616e-01
 1.045593e+00  9.544066e-01
 1.047354e+00  9.526462e-01
 1.049118e+00  9.508824e-01
 1.050882e+00  9.491176e-01
 1.052646e+00  9.473538e-01
 1.054407e+00  9.455934e-01
 1.056162e+00  9.438384e-01
 1.057909e+00  9.420911e-01
 1.059646e+00  9.403537e-01
 1.061372e+00  9.386283e-01
 1.063083e+00  9.369170e-01
 1.064778e+00  9.352221e-01
 1.066454e+00  9.335456e-01
 1.068110e+00  9.318895e-01
 1.069744e+00  9.302561e-01
 1.071353e+00  9.286472e-01
 1.072935e+00  9.270649e-01
 1.074489e+00  9.255112e-01
 1.076012e+00  9.239880e-01
 1.077503e+00  9.224972e-01
 1.078959e+00  9.210407e-01
 1.080380e+00  9.196203e-01
 1.081762e+00  9.182377e-01
 1.083105e+00  9.168947e-01
 1.084407e+00  9.155929e-01
 1.085666e+00  9.143340e-01
 1.086880e+00  9.131196e-01
 1.088049e+00  9.119511e-01
 1.089170e+00  9.108299e-01
 1.090242e+00  9.097576e-01
 1.091265e+00  9.087355e-01
 1.092235e+00  9.077647e-01
 1.093153e+00  9.068466e-01
 1.094018e+00  9.059822e-01
 1.094827e+00  9.051726e-01
 1.095581e+00  9.044189e-01
 1.096278e+00  9.037220e-01
 1.096917e+00  9.030828e-01
 1.097498e+00  9.025020e-01
 1.098020e+00  9.019804e-01
 1.098481e+00  9.015186e-01
 1.098883e+00  9.011172e-01
 1.099223e+00  9.007767e-01
 1.099502e+00  9.004976e-01
 1.099720e+00  9.002801e-01
 1.099875e+00  9.001245e-01
 1.099969e+00  9.000311e-01
 1.100000e+00  9.000000e-01
 1.000000e+00  1.000000e+00
 1.000031e+00  9.999689e-01
 1.000125e+00  9.998755e-01
 1.000280e+00  9.997199e-01
 1.000498e+00  9.995024e-01
 1.000777e+00  9.992233e-01
 1.001117e+00  9.988828e-01
 1.001519e+00  9.984814e-01
 1.001980e+00  9.980196e-01
 1.002502e+00  9.974980e-01
 1.003083e+00  9.969172e-01
 1.003722e+00  9.962780e-01
 1.004419e+00  9.955811e-01
 1.005173e+00  9.948274e-01
 1.005982e+00  9.940178e-01
 1.006847e+00  9.931534e-01
 1.007765e+00  9.922353e-01
 1.008735e+00  9.912645e-01
 1.009758e+00  9.902424e-01
 1.010830e+00  9.891701e-01
 1.011951e+00  9.880489e-01
 1.013120e+00  9.868804e-01
 1.014334e+00  9.856660e-01
 1.015593e+00  9.844071e-01
 1.016895e+00  9.831053e-01
 1.018238e+00  9.817623e-01
 1.019620e+00  9.803797e-01
 1.021041e+00  9.789593e-01
 1.022497e+00  9.775028e-01
 1.023988e+00  9.760120e-01
 1.025511e+00  9.744888e-01
 1.027065e+00  9.729351e-01
 1.028647e+00  9.713528e-01
 1.030256e+00  9.697439e-01
 1.031890e+00  9.681105e-01
 1.033546e+00  9.664544e-01
 1.035222e+00  9.647779e-01
 1.036917e+00  9.630830e-01
 1.038628e+00  9.613717e-01
 1.040354e+00  9.596463e-01
 1.042091e+00  9.579089e-01
 1.043838e+00  9.561616e-01
 1.045593e+00  9.544066e-01
 1.047354e+00  9.526462e-01
 1.049118e+00  9.508824e-01
 1.050882e+00  9.491176e-01
 1.052646e+00  9.473538e-01
 1.054407e+00  9.455934e-01
 1.056162e+00  9.438384e-01
 1.057909e+00  9.420911e-01
 1.059646e+00  9.403537e-01
 1.061372e+00  9.386283e-01
 1.063083e+00  9.369170e-01
 1.064778e+00  9.352221e-01
 1.066454e+00  9.335456e-01
 1.068110e+00  9.318895e-01
 1.069744e+00  9.302561e-01
 1.071353e+00  9.286472e-01
 1.072935e+00  9.270649e-01
 1.074489e+00  9.255112e-01
 1.076012e+00  9.239880e-01
 1.077503e+00  9.224972e-01
 1.078959e+00  9.210407e-01
 1.080380e+00  9.196203e-01
 1.081762e+00  9.182377e-01
 1.083105e+00  9.168947e-01
 1.084407e+00  9.155929e-01
 1.085666e+00  9.143340e-01
 1.086880e+00  9.131196e-01
 1.088049e+00  9.119511e-01
 1.089170e+00  9.108299e-01
 1.090242e+00  9.097576e-01
 1.091265e+00  9.087355e-01
 1.092235e+00  9.077647e-01
 1.093153e+00  9.068466e-01
 1.094018e+00  9.059822e-01
 1.094827e+00  9.051726e-01
 1.095581e+00  9.044189e-01
 1.096278e+00  9.037220e-01
 1.096917e+00  9.030828e-01
 1.097498e+00  9.025020e-01
 1.098020e+00  9.019804e-01
 1.098481e+00  9.015186e-01
 1.098883e+00  9.011172e-01
 1.099223e+00  9.007767e-01
 1.099502e+00  9.004976e-01
 1.099720e+00  9.002801e-01
 1.099875e+00  9.001245e-01
 1.099969e+00  9.000311e-01
 1.100000e+00  9.000000e-01
 1.000000e+00  1.000000e+00
 1.000031e+00  9.999689e-01
 1.000125e+00  9.998755e-01
 1.000280e+00  9.997199e-01
 1.000498e+00  9.995024e-01
 1.000777e+00  9.992233e-01
 1.001117e+00  9.988828e-01
 1.001519e+00  9.984814e-01
 1.001980e+00  9.980196e-01
 1.002502e+00  9.974980e-01
 1.003083e+00  9.969172e-01
 1.003722e+00  9.962780e-01
 1.004419e+00  9.955811e-01
 1.005173e+00  9.948274e-01
 1.005982e+00  9.940178e-01
 1.006847e+00  9.931534e-01
 1.007765e+00  9.922353e-01
 1.008735e+00  9.912645e-01
 1.009758e+00  9.902424e-01
 1.010830e+00  9.891701e-01
 1.011951e+00  9.880489e-01
 1.013120e+00  9.868804e-01
 1.014334e+00  9.856660e-01
 1.015593e+00  9.844071e-01
 1.016895e+00  9.831053e-01
 1.018238e+00  9.817623e-01
 1.019620e+00  9.803797e-01
 1.021041e+00  9.789593e-01
 1.022497e+00  9.775028e-01
 1.023988e+00  9.760120e-01
 1.025511e+00  9.744888e-01
 1.027065e+00  9.729351e-01
 1.028647e+00  9.713528e-01
 1.030256e+00  9.697439e-01
 1.031890e+00  9.681105e-01
 1.033546e+00  9.664544e-01
 1.035222e+00  9.647779e-01
 1.036917e+00  9.630830e-01
 1.038628e+00  9.613717e-01
 1.040354e+00  9.596463e-01
 1.042091e+00  9.579089e-01
 1.043838e+00  9.561616e-01
 1.045593e+00  9.544066e-01
 1.047354e+00  9.526462e-01
 1.049118e+00  9.508824e-01
 1.050882e+00  9.491176e-01
 1.052646e+00  9.473538e-01
 1.054407e+00  9.455934e-01
 1.056162e+00  9.438384e-01
 1.057909e+00  9.420911e-01
 1.059646e+00  9.403537e-01
 1.061372e+00  9.386283e-01
 1.063083e+00  9.369170e-01
 1.064778e+00  9.352221e-01
 1.066454e+00  9.335456e-01
 1.068110e+00  9.318895e-01
 1.069744e+00  9.302561e-01
 1.071353e+00  9.286472e-01
 1.072935e+00  9.270649e-01
 1.074489e+00  9.255112e-01
 1.076012e+00  9.239880e-01
 1.077503e+00  9.224972e-01
 1.078959e+00  9.210407e-01
 1.080380e+00  9.196203e-01
 1.081762e+00  9.182377e-01
 1.083105e+00  9.168947e-01
 1.084407e+00  9.155929e-01
 1.085666e+00  9.143340e-01
 1.086880e+00  9.131196e-01
 1.088049e+00  9.119511e-01
 1.089170e+00  9.108299e-01
 1.090242e+00  9.097576e-01
 1.091265e+00  9.087355e-01
 1.092235e+00  9.077647e-01
 1.093153e+00  9.068466e-01
 1.094018e+00  9.059822e-01
 1.094827e+00  9.051726e-01
 1.095581e+00  9.044189e-01
 1.096278e+00  9.037220e-01
 1.096917e+00  9.030828e-01
 1.097498e+00  9.025020e-01
 1.098020e+00  9.019804e-01
 1.098481e+00  9.015186e-01
 1.098883e+00  9.011172e-01
 1.099223e+00  9.007767e-01
 1.099502e+00  9.004976e-01
 1.099720e+00  9.002801e-01
 1.099875e+00  9.001245e-01
 1.099969e+00  9.000311e-01
 1.100000e+00  9.000000e-01
 1.000000e+00  1.000000e+00
 1.000031e+00  9.999689e-01
 1.000125e+00  9.998755e-01
 1.000280e+00  9.997199e-01
 1.000498e+00  9.995024e-01
 1.000777e+00  9.992233e-01
 1.001117e+00  9.988828e-01
 1.001519e+00  9.984814e-01
 1.001980e+00  9.980196e-01
 1.002502e+00  9.974980e-01
 1.003083e+00  9.969172e-01
 1.003722e+00  9.962780e-01
 1.004419e+00  9.955811e-01
 1.005173e+00  9.948274e-01
 1.005982e+00  9.940178e-01
 1.006847e+00  9.931534e-01
 1.007765e+00  9.922353e-01
 1.008735e+00  9.912645e-01
 1.009758e+00  9.902424e-01
 1.010830e+00  9.891701e-01
 1.011951e+00  9.880489e-01
 1.013120e+00  9.868804e-01
 1.014334e+00  9.856660e-01
 1.015593e+00  9.844071e-01
 1.016895e+00  9.831053e-01
 1.018238e+00  9.817623e-01
 1.019620e+00  9.803797e-01
 1.021041e+00  9.789593e-01
 1.022497e+00  9.775028e-01
 1.023988e+00  9.760120e-01
 1.025511e+00  9.744888e-01
 1.027065e+00  9.729351e-01
 1.028647e+00  9.713528e-01
 1.030256e+00  9.697439e-01
 1.031890e+00  9.681105e-01
 1.033546e+00  9.664544e-01
 1.035222e+00  9.647779e-01
 1.036917e+00  9.630830e-01
 1.038628e+00  9.613717e-01
 1.040354e+00  9.596463e-01
 1.042091e+00  9.579089e-01
 1.043838e+00  9.561616e-01
 1.045593e+00  9.544066e-01
 1.047354e+00  9.526462e-01
 1.049118e+00  9.508824e-01
 1.050882e+00  9.491176e-01
 1.052646e+00  9.473538e-01
 1.054407e+00  9.455934e-01
 1.056162e+00  9.438384e-01
 1.057909e+00  9.420911e-01
 1.059646e+00  9.403537e-01
 1.061372e+00  9.386283e-01
 1.063083e+00  9.369170e-01
 1.064778e+00  9.352221e-01
 1.066454e+00  9.335456e-01
 1.068110e+00  9.318895e-01
 1.069744e+00  9.302561e-01
 1.071353e+00  9.286472e-01
 1.072935e+00  9.270649e-01
 1.074489e+00  9.255112e-01
 1.076012e+00  9.239880e-01
 1.077503e+00  9.224972e-01
 1.078959e+00  9.210407e-01
 1.080380e+00  9.196203e-01
 1.081762e+00  9.182377e-01
 1.083105e+00  9.168947e-01
 1.084407e+00  9.155929e-01
 1.085666e+00  9.143340e-01
 1.086880e+00  9.131196e-01
 1.088049e+00  9.119511e-01
 1.089170e+00  9.108299e-01
 1.090242e+00  9.097576e-01
 1.091265e+00  9.087355e-01
 1.092235e+00  9.077647e-01
 1.093153e+00  9.068466e-01
 1.094018e+00  9.059822e-01
 1.094827e+00  9.051726e-01
 1.095581e+00  9.044189e-01
 1.096278e+00  9.037220e-01
 1.096917e+00  9.030828e-01
 1.097498e+00  9.025020e-01
 1.098020e+00  9.019804e-01
 1.098481e+00  9.015186e-01
 1.098883e+00  9.011172e-01
 1.099223e+00  9.007767e-01
 1.099502e+00  9.004976e-01
 1.099720e+00  9.002801e-01
 1.099875e+00  9.001245e-01
 1.099969e+00  9.000311e-01
 1.100000e+00  9.000000e-01
 1.000000e+00  1.000000e+00
 1.000031e+00  9.999689e-01
 1.000125e+00  9.998755e-01
 1.000280e+00  9.997199e-01
 1.000498e+00  9.995024e-01
 1.000777e+00  9.992233e-01
 1.001117e+00  9.988828e-01
 1.001519e+00  9.984814e-01
 1.001980e+00  9.980196e-01
 1.002502e+00  9.974980e-01
 1.003083e+00  9.969172e-01
 1.003722e+00  9.962780e-01
 1.004419e+00  9.955811e-01
 1.005173e+00  9.948274e-01
 1.005982e+00  9.940178e-01
 1.006847e+00  9.931534e-01
 1.007765e+00  9.922353e-01
 1.008735e+00  9.912645e-01
 1.009758e+00  9.902424e-01
 1.010830e+00  9.891701e-01
 1.011951e+00  9.880489e-01
 1.013120e+00  9.868804e-01
 1.014334e+00  9.856660e-01
 1.015593e+00  9.844071e-01
 1.016895e+00  9.831053e-01
 1.018238e+00  9.817623e-01
 1.019620e+00  9.803797e-01
 1.021041e+00  9.789593e-01
 1.022497e+00  9.775028e-01
 1.023988e+00  9.760120e-01
 1.025511e+00  9.744888e-01
 1.027065e+00  9.729351e-01
 1.028647e+00  9.713528e-01
 1.030256e+00  9.697439e-01
 1.031890e+00  9.681105e-01
 1.033546e+00  9.664544e-01
 1.035222e+00  9.647779e-01
 1.036917e+00  9.630830e-01
 1.038628e+00  9.613717e-01
 1.040354e+00  9.596463e-01
 1.042091e+00  9.579089e-01
 1.043838e+00  9.561616e-01
 1.045593e+00  9.544066e-01
 1.047354e+00  9.526462e-01
 1.049118e+00  9.508824e-01
 1.050882e+00  9.491176e-01
 1.052646e+00  9.473538e-01
 1.054407e+00  9.455934e-01
 1.056162e+00  9.438384e-01
 1.057909e+00  9.420911e-01
 1.059646e+00  9.403537e-01
 1.061372e+00  9.386283e-01
 1.063083e+00  9.369170e-01
 1.064778e+00  9.352221e-01
 1.066454e+00  9.335456e-01
 1.068110e+00  9.318895e-01
 1.069744e+00  9.302561e-01
 1.071353e+00  9.286472e-01
 1.072935e+00  9.270649e-01
 1.074489e+00  9.255112e-01
 1.076012e+00  9.239880e-01
 1.077503e+00  9.224972e-01
 1.078959e+00  9.210407e-01
 1.080380e+00  9.196203e-01
 1.081762e+00  9.182377e-01
 1.083105e+00  9.168947e-01
 1.084407e+00  9.155929e-01
 1.085666e+00  9.143340e-01
 1.086880e+00  9.131196e-01
 1.088049e+00  9.119511e-01
 1.089170e+00  9.108299e-01
 1.090242e+00  9.097576e-01
 1.091265e+00  9.087355e-01
 1.092235e+00  9.077647e-01
 1.093153e+00  9.068466e-01
 1.094018e+00  9.059822e-01
 1.094827e+00  9.051726e-01
 1.095581e+00  9.044189e-01
 1.096278e+00  9.037220e-01
 1.096917e+00  9.030828e-01
 1.097498e+00  9.025020e-01
 1.098020e+00  9.019804e-01
 1.098481e+00  9.015186e-01
 1.098883e+00  9.011172e-01
 1.099223e+00  9.007767e-01
 1.099502e+00  9.004976e-01
 1.099720e+00  9.002801e-01
 1.099875e+00  9.001245e-01
 1.099969e+00  9.000311e-01
 1.100000e+00  9.000000e-01
 1.000000e+00  1.000000e+00
 1.000031e+00  9.999689e-01
 1.000125e+00  9.998755e-01
 1.000280e+00  9.997199e-01
 1.000498e+00  9.995024e-01
 1.000777e+00  9.992233e-01
 1.001117e+00  9.988828e-01
 1.001519e+00  9.984814e-01
 1.001980e+00  9.980196e-01
 1.002502e+00  9.974980e-01
 1.003083e+00  9.969172e-01
 1.003722e+00  9.962780e-01
 1.004419e+00  9.955811e-01
 1.005173e+00  9.948274e-01
 1.005982e+00  9.940178e-01
 1.006847e+00  9.931534e-01
 1.007765e+00  9.922353e-01
 1.008735e+00  9.912645e-01
 1.009758e+00  9.902424e-01
 1.010830e+00  9.891701e-01
 1.011951e+00  9.880489e-01
 1.013120e+00  9.868804e-01
 1.014334e+00  9.856660e-01
 1.015593e+00  9.844071e-01
 1.016895e+00  9.831053e-01
 1.018238e+00  9.817623e-01
 1.019620e+00  9.803797e-01
 1.021041e+00  9.789593e-01
 1.022497e+00  9.775028e-01
 1.023988e+00  9.760120e-01
 1.025511e+00  9.744888e-01
 1.027065e+00  9.729351e-01
 1.028647e+00  9.713528e-01
 1.030256e+00  9.697439e-01
 1.031890e+00  9.681105e-01
 1.033546e+00  9.664544e-01
 1.035222e+00  9.647779e-01
 1.036917e+00  9.630830e-01
 1.038628e+00  9.613717e-01
 1.040354e+00  9.596463e-01
 1.042091e+00  9.579089e-01
 1.043838e+00  9.561616e-01
 1.045593e+00  9.544066e-01
 1.047354e+00  9.526462e-01
 1.049118e+00  9.508824e-01
 1.050882e+00  9.491176e-01
 1.052646e+00  9.473538e-01
 1.054407e+00  9.455934e-01
 1.056162e+00  9.438384e-01
 1.057909e+00  9.420911e-01
 1.059646e+00  9.403537e-01
 1.061372e+00  9.386283e-01
 1.063083e+00  9.369170e-01
 1.064778e+00  9.352221e-01
 1.066454e+00  9.335456e-01
 1.068110e+00  9.318895e-01
 1.069744e+00  9.302561e-01
 1.071353e+00  9.286472e-01
 1.072935e+00  9.270649e-01
 1.074489e+00  9.255112e-01
 1.076012e+00  9.239880e-01
 1.077503e+00  9.224972e-01
 1.078959e+00  9.210407e-01
 1.080380e+00  9.196203e-01
 1.081762e+00  9.182377e-01
 1.083105e+00  9.168947e-01
 1.084407e+00  9.155929e-01
 1.085666e+00  9.143340e-01
 1.086880e+00  9.131196e-01
 1.088049e+00  9.119511e-01
 1.089170e+00  9.108299e-01
 1.090242e+00  9.097576e-01
 1.091265e+00  9.087355e-01
 1.092235e+00  9.077647e-01
 1.093153e+00  9.068466e-01
 1.094018e+00  9.059822e-01
 1.094827e+00  9.051726e-01
 1.095581e+00  9.044189e-01
 1.096278e+00  9.037220e-01
 1.096917e+00  9.030828e-01
 1.097498e+00  9.025020e-01
 1.098020e+00  9.019804e-01
 1.098481e+00  9.015186e-01
 1.098883e+00  9.011172e-01
 1.099223e+00  9.007767e-01
 1.099502e+00  9.004976e-01
 1.099720e+00  9.002801e-01
 1.099875e+00  9.001245e-01
 1.099969e+00  9.000311e-01
 1.100000e+00  9.000000e-01
 1.000000e+00  1.000000e+00
 1.000031e+00  9.999689e-01
 1.000125e+00  9.998755e-01
 1.000280e+00  9.997199e-01
 1.000498e+00  9.995024e-01
 1.000777e+00  9.992233e-01
 1.001117e+00  9.988828e-01
 1.001519e+00  9.984814e-01
 1.001980e+00  9.980196e-01
 1.002502e+00  9.974980e-01
 1.003083e+00  9.969172e-01
 1.003722e+00  9.962780e-01
 1.004419e+00  9.955811e-01
 1.005173e+00  9.948274e-01
 1.005982e+00  9.940178e-01
 1.006847e+00  9.931534e-01
 1.007765e+00  9.922353e-01
 1.008735e+00  9.912645e-01
 1.009758e+00  9.902424e-01
 1.010830e+00  9.891701e-01
 1.011951e+00  9.880489e-01
 1.013120e+00  9.868804e-01
 1.014334e+00  9.856660e-01
 1.015593e+00  9.844071e-01
 1.016895e+00  9.831053e-01
 1.018238e+00  9.817623e-01
 1.019620e+00  9.803797e-01
 1.021041e+00  9.789593e-01
 1.022497e+00  9.775028e-01
 1.023988e+00  9.760120e-01
 1.025511e+00  9.744888e-01
 1.027065e+00  9.729351e-01
 1.028647e+00  9.713528e-01
 1.030256e+00  9.697439e-01
 1.031890e+00  9.681105e-01
 1.033546e+00  9.664544e-01
 1.035222e+00  9.647779e-01
 1.036917e+00  9.630830e-01
 1.038628e+00  9.613717e-01
 1.040354e+00  9.596463e-01
 1.042091e+00  9.579089e-01
 1.043838e+00  9.561616e-01
 1.045593e+00  9.544066e-01
 1.047354e+00  9.526462e-01
 1.049118e+00  9.508824e-01
 1.050882e+00  9.491176e-01
 1.052646e+00  9.473538e-01
 1.054407e+00  9.455934e-01
 1.056162e+00  9.438384e-01
 1.057909e+00  9.420911e-01
 1.059646e+00  9.403537e-01
 1.061372e+00  9.386283e-01
 1.063083e+00  9.369170e-01
 1.064778e+00  9.352221e-01
 1.066454e+00  9.335456e-01
 1.068110e+00  9.318895e-01
 1.069744e+00  9.302561e-01
 1.071353e+00  9.286472e-01
 1.072935e+00  9.270649e-01
 1.074489e+00  9.255112e-01
 1.076012e+00  9.239880e-01
 1.077503e+00  9.224972e-01
 1.078959e+00  9.210407e-01
 1.080380e+00  9.196203e-01
 1.081762e+00  9.182377e-01
 1.083105e+00  9.168947e-01
 1.084407e+00  9.155929e-01
 1.085666e+00  9.143340e-01
 1.086880e+00  9.131196e-01
 1.088049e+00  9.119511e-01
 1.089170e+00  9.108299e-01
 1.090242e+00  9.097576e-01
 1.091265e+00  9.087355e-01
 1.092235e+00  9.077647e-01
 1.093153e+00  9.068466e-01
 1.094018e+00  9.059822e-01
 1.094827e+00  9.051726e-01
 1.095581e+00  9.044189e-01
 1.096278e+00  9.037220e-01
 1.096917e+00  9.030828e-01
 1.097498e+00  9.025020e-01
 1.098020e+00  9.019804e-01
 1.098481e+00  9.015186e-01
 1.098883e+00  9.011172e-01
 1.099223e+00  9.007767e-01
 1.099502e+00  9.004976e-01
 1.099720e+00  9.002801e-01
 1.099875e+00  9.001245e-01
 1.099969e+00  9.000311e-01
 1.100000e+00  9.000000e-01
 1.000000e+00  1.000000e+00
 1.000031e+00  9.999689e-01
 1.000125e+00  9.998755e-01
 1.000280e+00  9.997199e-01
 1.000498e+00  9.995024e-01
 1.000777e+00  9.992233e-01
 1.001117e+00  9.988828e-01
 1.001519e+00  9.984814e-01
 1.001980e+00  9.980196e-01
 1.002502e+00  9.974980e-01
 1.003083e+00  9.969172e-01
 1.003722e+00  9.962780e-01
 1.004419e+00  9.955811e-01
 1.005173e+00  9.948274e-01
 1.005982e+00  9.940178e-01
 1.006847e+00  9.931534e-01
 1.007765e+00  9.922353e-01
 1.008735e+00  9.912645e-01
 1.009758e+00  9.902424e-01
 1.010830e+00  9.891701e-01
 1.011951e+00  9.880489e-01
 1.013120e+00  9.868804e-01
 1.014334e+00  9.856660e-01
 1.015593e+00  9.844071e-01
 1.016895e+00  9.831053e-01
 1.018238e+00  9.817623e-01
 1.019620e+00  9.803797e-01
 1.021041e+00  9.789593e-01
 1.022497e+00  9.775028e-01
 1.023988e+00  9.760120e-01
 1.025511e+00  9.744888e-01
 1.027065e+00  9.729351e-01
 1.028647e+00  9.713528e-01
 1.030256e+00  9.697439e-01
 1.031890e+00  9.681105e-01
 1.033546e+00  9.664544e-01
 1.035222e+00  9.647779e-01
 1.036917e+00  9.630830e-01
 1.038628e+00  9.613717e-01
 1.040354e+00  9.596463e-01
 1.042091e+00  9.579089e-01
 1.043838e+00  9.561616e-01
 1.045593e+00  9.544066e-01
 1.047354e+00  9.526462e-01
 1.049118e+00  9.508824e-01
 1.050882e+00  9.491176e-01
 1.052646e+00  9.473538e-01
 1.054407e+00  9.455934e-01
 1.056162e+00  9.438384e-01
 1.057909e+00  9.420911e-01
 1.059646e+00  9.403537e-01
 1.061372e+00  9.386283e-01
 1.063083e+00  9.369170e-01
 1.064778e+00  9.352221e-01
 1.066454e+00  9.335456e-01
 1.068110e+00  9.318895e-01
 1.069744e+00  9.302561e-01
 1.071353e+00  9.286472e-01
 1.072935e+00  9.270649e-01
 1.074489e+00  9.255112e-01
 1.076012e+00  9.239880e-01
 1.077503e+00  9.224972e-01
 1.078959e+00  9.210407e-01
 1.080380e+00  9.196203e-01
 1.081762e+00  9.182377e-01
 1.083105e+00  9.168947e-01
 1.084407e+00  9.155929e-01
 1.085666e+00  9.143340e-01
 1.086880e+00  9.131196e-01
 1.088049e+00  9.119511e-01
 1.089170e+00  9.108299e-01
 1.090242e+00  9.097576e-01
 1.091265e+00  9.087355e-01
 1.092235e+00  9.077647e-01
 1.093153e+00  9.068466e-01
 1.094018e+00  9.059822e-01
 1.094827e+00  9.051726e-01
 1.095581e+00  9.044189e-01
 1.096278e+00  9.037220e-01
 1.096917e+00  9.030828e-01
 1.097498e+00  9.025020e-01
 1.098020e+00  9.019804e-01
 1.098481e+00  9.015186e-01
 1.098883e+00  9.011172e-01
 1.099223e+00  9.007767e-01
 1.099502e+00  9.004976e-01
 1.099720e+00  9.002801e-01
 1.099875e+00  9.001245e-01
 1.099969e+00  9.000311e-01
 1.100000e+00  9.000000e-01
 1.000000e+00  1.000000e+00
 1.000031e+00  9.999689e-01
 1.000125e+00  9.998755e-01
 1.000280e+00  9.997199e-01
 1.000498e+00  9.995024e-01
 1.000777e+00  9.992233e-01
 1.001117e+00  9.988828e-01
 1.001519e+00  9.984814e-01
 1.001980e+00  9.980196e-01
 1.002502e+00  9.974980e-01
 1.003083e+00  9.969172e-01
 1.003722e+00  9.962780e-01
 1.004419e+00  9.955811e-01
 1.005173e+00  9.948274e-01
 1.005982e+00  9.940178e-01
 1.006847e+00  9.931534e-01
 1.007765e+00  9.922353e-01
 1.008735e+00  9.912645e-01
 1.009758e+00  9.902424e-01
 1.010830e+00  9.891701e-01
 1.011951e+00  9.880489e-01
 1.013120e+00  9.868804e-01
 1.014334e+00  9.856660e-01
 1.015593e+00  9.844071e-01
 1.016895e+00  9.831053e-01
 1.018238e+00  9.817623e-01
 1.019620e+00  9.803797e-01
 1.021041e+00  9.789593e-01
 1.022497e+00  9.775028e-01
 1.023988e+00  9.760120e-01
 1.025511e+00  9.744888e-01
 1.027065e+00  9.729351e-01
 1.028647e+00  9.713528e-01
 1.030256e+00  9.697439e-01
 1.031890e+00  9.681105e-01
 1.033546e+00  9.664544e-01
 1.035222e+00  9.647779e-01
 1.036917e+00  9.630830e-01
 1.038628e+00  9.613717e-01
 1.040354e+00  9.596463e-01
 1.042091e+00  9.579089e-01
 1.043838e+00  9.561616e-01
 1.045593e+00  9.544066e-01
 1.047354e+00  9.526462e-01
 1.049118e+00  9.508824e-01
 1.050882e+00  9.491176e-01
 1.052646e+00  9.473538e-01
 1.054407e+00  9.455934e-01
 1.056162e+00  9.438384e-01
 1.057909e+00  9.420911e-01
 1.059646e+00  9.403537e-01
 1.061372e+00  9.386283e-01
 1.063083e+00  9.369170e-01
 1.064778e+00  9.352221e-01
 1.066454e+00  9.335456e-01
 1.068110e+00  9.318895e-01
 1.069744e+00  9.302561e-01
 1.071353e+00  9.286472e-01
 1.072935e+00  9.270649e-01
 1.074489e+00  9.255112e-01
 1.076012e+00  9.239880e-01
 1.077503e+00  9.224972e-01
 1.078959e+00  9.210407e-01
 1.080380e+00  9.196203e-01
 1.081762e+00  9.182377e-01
 1.083105e+00  9.168947e-01
 1.084407e+00  9.155929e-01
 1.085666e+00  9.143340e-01
 1.086880e+00  9.131196e-01
 1.088049e+00  9.119511e-01
 1.089170e+00  9.108299e-01
 1.090242e+00  9.097576e-01
 1.091265e+00  9.087355e-01
 1.092235e+00  9.077647e-01
 1.093153e+00  9.068466e-01
 1.094018e+00  9.059822e-01
 1.094827e+00  9.051726e-01
 1.095581e+00  9.044189e-01
 1.096278e+00  9.037220e-01
 1.096917e+00  9.030828e-01
 1.097498e+00  9.025020e-01
 1.098020e+00  9.019804e-01
 1.098481e+00  9.015186e-01
 1.098883e+00  9.011172e-01
 1.099223e+00  9.007767e-01
 1.099502e+00  9.004976e-01
 1.099720e+00  9.002801e-01
 1.099875e+00  9.001245e-01
 1.099969e+00  9.000311e-01
 1.100000e+00  9.000000e-01
 1.000000e+00  1.000000e+00
 1.000031e+00  9.999689e-01
 1.000125e+00  9.998755e-01
 1.000280e+00  9.997199e-01
 1.000498e+00  9.995024e-01
 1.000777e+00  9.992233e-01
 1.001117e+00  9.988828e-01
 1.001519e+00  9.984814e-01
 1.001980e+00  9.980196e-01
 1.002502e+00  9.974980e-01
 1.003083e+00  9.969172e-01
 1.003722e+00  9.962780e-01
 1.004419e+00  9.955811e-01
 1.005173e+00  9.948274e-01
 1.005982e+00  9.940178e-01
 1.006847e+00  9.931534e-01
 1.007765e+00  9.922353e-01
 1.008735e+00  9.912645e-01
 1.009758e+00  9.902424e-01
 1.010830e+00  9.891701e-01
 1.011951e+00  9.880489e-01
 1.013120e+00  9.868804e-01
 1.014334e+00  9.856660e-01
 1.015593e+00  9.844071e-01
 1.016895e+00  9.831053e-01
 1.018238e+00  9.817623e-01
 1.019620e+00  9.803797e-01
 1.021041e+00  9.789593e-01
 1.022497e+00  9.775028e-01
 1.023988e+00  9.760120e-01
 1.025511e+00  9.744888e-01
 1.027065e+00  9.729351e-01
 1.028647e+00  9.713528e-01
 1.030256e+00  9.697439e-01
 1.031890e+00  9.681105e-01
 1.033546e+00  9.664544e-01
 1.035222e+00  9.647779e-01
 1.036917e+00  9.630830e-01
 1.038628e+00  9.613717e-01
 1.040354e+00  9.596463e-01
 1.042091e+00  9.579089e-01
 1.043838e+00  9.561616e-01
 1.045593e+00  9.544066e-01
 1.047354e+00  9.526462e-01
 1.049118e+00  9.508824e-01
 1.050882e+00  9.491176e-01
 1.052646e+00  9.473538e-01
 1.054407e+00  9.455934e-01
 1.056162e+00  9.438384e-01
 1.057909e+00  9.420911e-01
 1.059646e+00  9.403537e-01
 1.061372e+00  9.386283e-01
 1.063083e+00  9.369170e-01
 1.064778e+00  9.352221e-01
 1.066454e+00  9.335456e-01
 1.068110e+00  9.318895e-01
 1.069744e+00  9.302561e-01
 1.071353e+00  9.286472e-01
 1.072935e+00  9.270649e-01
 1.074489e+00  9.255112e-01
 1.076012e+00  9.239880e-01
 1.077503e+00  9.224972e-01
 1.078959e+00  9.210407e-01
 1.080380e+00  9.196203e-01
 1.081762e+00  9.182377e-01
 1.083105e+00  9.168947e-01
 1.084407e+00  9.155929e-01
 1.085666e+00  9.143340e-01
 1.086880e+00  9.131196e-01
 1.088049e+00  9.119511e-01
 1.089170e+00  9.108299e-01
 1.090242e+00  9.097576e-01
 1.091265e+00  9.087355e-01
 1.092235e+00  9.077647e-01
 1.093153e+00  9.068466e-01
 1.094018e+00  9.059822e-01
 1.094827e+00  9.051726e-01
 1.095581e+00  9.044189e-01
 1.096278e+00  9.037220e-01
 1.096917e+00  9.030828e-01
 1.097498e+00  9.025020e-01
 1.098020e+00  9.019804e-01
 1.098481e+00  9.015186e-01
 1.098883e+00  9.011172e-01
 1.099223e+00  9.007767e-01
 1.099502e+00  9.004976e-01
 1.099720e+00  9.002801e-01
 1.099875e+00  9.001245e-01
 1.099969e+00  9.000311e-01
 1.100000e+00  9.000000e-01
 1.000000e+00  1.000000e+00
 1.000031e+00  9.999689e-01
 1.000125e+00  9.998755e-01
 1.000280e+00  9.997199e-01
 1.000498e+00  9.995024e-01
 1.000777e+00  9.992233e-01
 1.001117e+00  9.988828e-01
 1.001519e+00  9.984814e-01
 1.001980e+00  9.980196e-01
 1.002502e+00  9.974980e-01
 1.003083e+00  9.969172e-01
 1.003722e+00  9.962780e-01
 1.004419e+00  9.955811e-01
 1.005173e+00  9.948274e-01
 1.005982e+00  9.940178e-01
 1.006847e+00  9.931534e-01
 1.007765e+00  9.922353e-01
 1.008735e+00  9.912645e-01
 1.009758e+00  9.902424e-01
 1.010830e+00  9.891701e-01
 1.011951e+00  9.880489e-01
 1.013120e+00  9.868804e-01
 1.014334e+00  9.856660e-01
 1.015593e+00  9.844071e-01
 1.016895e+00  9.831053e-01
 1.018238e+00  9.817623e-01
 1.019620e+00  9.803797e-01
 1.021041e+00  9.789593e-01
 1.022497e+00  9.775028e-01
 1.023988e+00  9.760120e-01
 1.025511e+00  9.744888e-01
 1.027065e+00  9.729351e-01
 1.028647e+00  9.713528e-01
 1.030256e+00  9.697439e-01
 1.031890e+00  9.681105e-01
 1.033546e+00  9.664544e-01
 1.035222e+00  9.647779e-01
 1.036917e+00  9.630830e-01
 1.038628e+00  9.613717e-01
 1.040354e+00  9.596463e-01
 1.042091e+00  9.579089e-01
 1.043838e+00  9.561616e-01
 1.045593e+00  9.544066e-01
 1.047354e+00  9.526462e-01
 1.049118e+00  9.508824e-01
 1.050882e+00  9.491176e-01
 1.052646e+00  9.473538e-01
 1.054407e+00  9.455934e-01
 1.056162e+00  9.438384e-01
 1.057909e+00  9.420911e-01
 1.059646e+00  9.403537e-01
 1.061372e+00  9.386283e-01
 1.063083e+00  9.369170e-01
 1.064778e+00  9.352221e-01
 1.066454e+00  9.335456e-01
 1.068110e+00  9.318895e-01
 1.069744e+00  9.302561e-01
 1.071353e+00  9.286472e-01
 1.072935e+00  9.270649e-01
 1.074489e+00  9.255112e-01
 1.076012e+00  9.239880e-01
 1.077503e+00  9.224972e-01
 1.078959e+00  9.210407e-01
 1.080380e+00  9.196203e-01
 1.081762e+00  9.182377e-01
 1.083105e+00  9.168947e-01
 1.084407e+00  9.155929e-01
 1.085666e+00  9.143340e-01
 1.086880e+00  9.131196e-01
 1.088049e+00  9.119511e-01
 1.089170e+00  9.108299e-01
 1.090242e+00  9.097576e-01
 1.091265e+00  9.087355e-01
 1.092235e+00  9.077647e-01
 1.093153e+00  9.068466e-01
 1.094018e+00  9.059822e-01
 1.094827e+00  9.051726e-01
 1.095581e+00  9.044189e-01
 1.096278e+00  9.037220e-01
 1.096917e+00  9.030828e-01
 1.097498e+00  9.025020e-01
 1.098020e+00  9.019804e-01
 1.098481e+00  9.015186e-01
 1.098883e+00  9.011172e-01
 1.099223e+00  9.007767e-01
 1.099502e+00  9.004976e-01
 1.099720e+00  9.002801e-01
 1.099875e+00  9.001245e-01
 1.099969e+00  9.000311e-01
 1.100000e+00  9.000000e-01
 1.000000e+00  1.000000e+00
 1.000031e+00  9.999689e-01
 1.000125e+00  9.998755e-01
 1.000280e+00  9.997199e-01
 1.000498e+00  9.995024e-01
 1.000777e+00  9.992233e-01
 1.001117e+00  9.988828e-01
 1.001519e+00  9.984814e-01
 1.001980e+00  9.980196e-01
 1.002502e+00  9.974980e-01
 1.003083e+00  9.969172e-01
 1.003722e+00  9.962780e-01
 1.004419e+00  9.955811e-01
 1.005173e+00  9.948274e-01
 1.005982e+00  9.940178e-01
 1.006847e+00  9.931534e-01
 1.007765e+00  9.922353e-01
 1.008735e+00  9.912645e-01
 1.009758e+00  9.902424e-01
 1.010830e+00  9.891701e-01
 1.011951e+00  9.880489e-01
 1.013120e+00  9.868804e-01
 1.014334e+00  9.856660e-01
 1.015593e+00  9.844071e-01
 1.016895e+00  9.831053e-01
 1.018238e+00  9.817623e-01
 1.019620e+00  9.803797e-01
 1.021041e+00  9.789593e-01
 1.022497e+00  9.775028e-01
 1.023988e+00  9.760120e-01
 1.025511e+00  9.744888e-01
 1.027065e+00  9.729351e-01
 1.028647e+00  9.713528e-01
 1.030256e+00  9.697439e-01
 1.031890e+00  9.681105e-01
 1.033546e+00  9.664544e-01
 1.035222e+00  9.647779e-01
 1.036917e+00  9.630830e-01
 1.038628e+00  9.613717e-01
 1.040354e+00  9.596463e-01
 1.042091e+00  9.579089e-01
 1.043838e+00  9.561616e-01
 1.045593e+00  9.544066e-01
 1.047354e+00  9.526462e-01
 1.049118e+00  9.508824e-01
 1.050882e+00  9.491176e-01
 1.052646e+00  9.473538e-01
 1.054407e+00  9.455934e-01
 1.056162e+00  9.438384e-01
 1.057909e+00  9.420911e-01
 1.059646e+00  9.403537e-01
 1.061372e+00  9.386283e-01
 1.063083e+00  9.369170e-01
 1.064778e+00  9.352221e-01
 1.066454e+00  9.335456e-01
 1.068110e+00  9.318895e-01
 1.069744e+00  9.302561e-01
 1.071353e+00  9.286472e-01
 1.072935e+00  9.270649e-01
 1.074489e+00  9.255112e-01
 1.076012e+00  9.239880e-01
 1.077503e+00  9.224972e-01
 1.078959e+00  9.210407e-01
 1.080380e+00  9.196203e-01
 1.081762e+00  9.182377e-01
 1.083105e+00  9.168947e-01
 1.084407e+00  9.155929e-01
 1.085666e+00  9.143340e-01
 1.086880e+00  9.131196e-01
 1.088049e+00  9.119511e-01
 1.089170e+00  9.108299e-01
 1.090242e+00  9.097576e-01
 1.091265e+00  9.087355e-01
 1.092235e+00  9.077647e-01
 1.093153e+00  9.068466e-01
 1.094018e+00  9.059822e-01
 1.094827e+00  9.051726e-01
 1.095581e+00  9.044189e-01
 1.096278e+00  9.037220e-01
 1.096917e+00  9.030828e-01
 1.097498e+00  9.025020e-01
 1.098020e+00  9.019804e-01
 1.098481e+00  9.015186e-01
 1.098883e+00  9.011172e-01
 1.099223e+00  9.007767e-01
 1.099502e+00  9.004976e-01
 1.099720e+00  9.002801e-01
 1.099875e+00  9.001245e-01
 1.099969e+00  9.000311e-01
 1.100000e+00  9.000000e-01
 1.000000e+00  1.000000e+00
 1.000031e+00  9.999689e-01
 1.000125e+00  9.998755e-01
 1.000280e+00  9.997199e-01
 1.000498e+00  9.995024e-01
 1.000777e+00  9.992233e-01
 1.001117e+00  9.988828e-01
 1.001519e+00  9.984814e-01
 1.001980e+00  9.980196e-01
 1.002502e+00  9.974980e-01
 1.003083e+00  9.969172e-01
 1.003722e+00  9.962780e-01
 1.004419e+00  9.955811e-01
 1.005173e+00  9.948274e-01
 1.005982e+00  9.940178e-01
 1.006847e+00  9.931534e-01
 1.007765e+00  9.922353e-01
 1.008735e+00  9.912645e-01
 1.009758e+00  9.902424e-01
 1.010830e+00  9.891701e-01
 1.011951e+00  9.880489e-01
 1.013120e+00  9.868804e-01
 1.014334e+00  9.856660e-01
 1.015593e+00  9.844071e-01
 1.016895e+00  9.831053e-01
 1.018238e+00  9.817623e-01
 1.019620e+00  9.803797e-01
 1.021041e+00  9.789593e-01
 1.022497e+00  9.775028e-01
 1.023988e+00  9.760120e-01
 1.025511e+00  9.744888e-01
 1.027065e+00  9.729351e-01
 1.028647e+00  9.713528e-01
 1.030256e+00  9.697439e-01
 1.031890e+00  9.681105e-01
 1.033546e+00  9.664544e-01
 1.035222e+00  9.647779e-01
 1.036917e+00  9.630830e-01
 1.038628e+00  9.613717e-01
 1.040354e+00  9.596463e-01
 1.042091e+00  9.579089e-01
 1.043838e+00  9.561616e-01
 1.045593e+00  9.544066e-01
 1.047354e+00  9.526462e-01
 1.049118e+00  9.508824e-01
 1.050882e+00  9.491176e-01
 1.052646e+00  9.473538e-01
 1.054407e+00  9.455934e-01
 1.056162e+00  9.438384e-01
 1.057909e+00  9.420911e-01
 1.059646e+00  9.403537e-01
 1.061372e+00  9.386283e-01
 1.063083e+00  9.369170e-01
 1.064778e+00  9.352221e-01
 1.066454e+00  9.335456e-01
 1.068110e+00  9.318895e-01
 1.069744e+00  9.302561e-01
 1.071353e+00  9.286472e-01
 1.072935e+00  9.270649e-01
 1.074489e+00  9.255112e-01
 1.076012e+00  9.239880e-01
 1.077503e+00  9.224972e-01
 1.078959e+00  9.210407e-01
 1.080380e+00  9.196203e-01
 1.081762e+00  9.182377e-01
 1.083105e+00  9.168947e-01
 1.084407e+00  9.155929e-01
 1.085666e+00  9.143340e-01
 1.086880e+00  9.131196e-01
 1.088049e+00  9.119511e-01
 1.089170e+00  9.108299e-01
 1.090242e+00  9.097576e-01
 1.091265e+00  9.087355e-01
 1.092235e+00  9.077647e-01
 1.093153e+00  9.068466e-01
 1.094018e+00  9.059822e-01
 1.094827e+00  9.051726e-01
 1.095581e+00  9.044189e-01
 1.096278e+00  9.037220e-01
 1.096917e+00  9.030828e-01
 1.097498e+00  9.025020e-01
 1.098020e+00  9.019804e-01
 1.098481e+00  9.015186e-01
 1.098883e+00  9.011172e-01
 1.099223e+00  9.007767e-01
 1.099502e+00  9.004976e-01
 1.099720e+00  9.002801e-01
 1.099875e+00  9.001245e-01
 1.099969e+00  9.000311e-01
 1.100000e+00  9.000000e-01
 1.000000e+00  1.000000e+00
 1.000031e+00  9.999689e-01
 1.000125e+00  9.998755e-01
 1.000280e+00  9.997199e-01
 1.000498e+00  9.995024e-01
 1.000777e+00  9.992233e-01
 1.001117e+00  9.988828e-01
 1.001519e+00  9.984814e-01
 1.001980e+00  9.980196e-01
 1.002502e+00  9.974980e-01
 1.003083e+00  9.969172e-01
 1.003722e+00  9.962780e-01
 1.004419e+00  9.955811e-01
 1.005173e+00  9.948274e-01
 1.005982e+00  9.940178e-01
 1.006847e+00  9.931534e-01
 1.007765e+00  9.922353e-01
 1.008735e+00  9.912645e-01
 1.009758e+00  9.902424e-01
 1.010830e+00  9.891701e-01
 1.011951e+00  9.880489e-01
 1.013120e+00  9.868804e-01
 1.014334e+00  9.856660e-01
 1.015593e+00  9.844071e-01
 1.016895e+00  9.831053e-01
 1.018238e+00  9.817623e-01
 1.019620e+00  9.803797e-01
 1.021041e+00  9.789593e-01
 1.022497e+00  9.775028e-01
 1.023988e+00  9.760120e-01
 1.025511e+00  9.744888e-01
 1.027065e+00  9.729351e-01
 1.028647e+00  9.713528e-01
 1.030256e+00  9.697439e-01
 1.031890e+00  9.681105e-01
 1.033546e+00  9.664544e-01
 1.035222e+00  9.647779e-01
 1.036917e+00  9.630830e-01
 1.038628e+00  9.613717e-01
 1.040354e+00  9.596463e-01
 1.042091e+00  9.579089e-01
 1.043838e+00  9.561616e-01
 1.045593e+00  9.544066e-01
 1.047354e+00  9.526462e-01
 1.049118e+00  9.508824e-01
 1.050882e+00  9.491176e-01
 1.052646e+00  9.473538e-01
 1.054407e+00  9.455934e-01
 1.056162e+00  9.438384e-01
 1.057909e+00  9.420911e-01
 1.059646e+00  9.403537e-01
 1.061372e+00  9.386283e-01
 1.063083e+00  9.369170e-01
 1.064778e+00  9.352221e-01
 1.066454e+00  9.335456e-01
 1.068110e+00  9.318895e-01
 1.069744e+00  9.302561e-01
 1.071353e+00  9.286472e-01
 1.072935e+00  9.270649e-01
 1.074489e+00  9.255112e-01
 1.076012e+00  9.239880e-01
 1.077503e+00  9.224972e-01
 1.078959e+00  9.210407e-01
 1.080380e+00  9.196203e-01
 1.081762e+00  9.182377e-01
 1.083105e+00  9.168947e-01
 1.084407e+00  9.155929e-01
 1.085666e+00  9.143340e-01
 1.086880e+00  9.131196e-01
 1.088049e+00  9.119511e-01
 1.089170e+00  9.108299e-01
 1.090242e+00  9.097576e-01
 1.091265e+00  9.087355e-01
 1.092235e+00  9.077647e-01
 1.093153e+00  9.068466e-01
 1.094018e+00  9.059822e-01
 1.094827e+00  9.051726e-01
 1.095581e+00  9.044189e-01
 1.096278e+00  9.037220e-01
 1.096917e+00  9.030828e-01
 1.097498e+00  9.025020e-01
 1.098020e+00  9.019804e-01
 1.098481e+00  9.015186e-01
 1.098883e+00  9.011172e-01
 1.099223e+00  9.007767e-01
 1.099502e+00  9.004976e-01
 1.099720e+00  9.002801e-01
 1.099875e+00  9.001245e-01
 1.099969e+00  9.000311e-01
 1.100000e+00  9.000000e-01
 1.000000e+00  1.000000e+00
 1.000031e+00  9.999689e-01
 1.000125e+00  9.998755e-01
 1.000280e+00  9.997199e-01
 1.000498e+00  9.995024e-01
 1.000777e+00  9.992233e-01
 1.001117e+00  9.988828e-01
 1.001519e+00  9.984814e-01
 1.001980e+00  9.980196e-01
 1.002502e+00  9.974980e-01
 1.003083e+00  9.969172e-01
 1.003722e+00  9.962780e-01
 1.004419e+00  9.955811e-01
 1.005173e+00  9.948274e-01
 1.005982e+00  9.940178e-01
 1.006847e+00  9.931534e-01
 1.007765e+00  9.922353e-01
 1.008735e+00  9.912645e-01
 1.009758e+00  9.902424e-01
 1.010830e+00  9.891701e-01
 1.011951e+00  9.880489e-01
 1.013120e+00  9.868804e-01
 1.014334e+00  9.856660e-01
 1.015593e+00  9.844071e-01
 1.016895e+00  9.831053e-01
 1.018238e+00  9.817623e-01
 1.019620e+00  9.803797e-01
 1.021041e+00  9.789593e-01
 1.022497e+00  9.775028e-01
 1.023988e+00  9.760120e-01
 1.025511e+00  9.744888e-01
 1.027065e+00  9.729351e-01
 1.028647e+00  9.713528e-01
 1.030256e+00  9.697439e-01
 1.031890e+00  9.681105e-01
 1.033546e+00  9.664544e-01
 1.035222e+00  9.647779e-01
 1.036917e+00  9.630830e-01
 1.038628e+00  9.613717e-01
 1.040354e+00  9.596463e-01
 1.042091e+00  9.579089e-01
 1.043838e+00  9.561616e-01
 1.045593e+00  9.544066e-01
 1.047354e+00  9.526462e-01
 1.049118e+00  9.508824e-01
 1.050882e+00  9.491176e-01
 1.052646e+00  9.473538e-01
 1.054407e+00  9.455934e-01
 1.056162e+00  9.438384e-01
 1.057909e+00  9.420911e-01
 1.059646e+00  9.403537e-01
 1.061372e+00  9.386283e-01
 1.063083e+00  9.369170e-01
 1.064778e+00  9.352221e-01
 1.066454e+00  9.335456e-01
 1.068110e+00  9.318895e-01
 1.069744e+00  9.302561e-01
 1.071353e+00  9.286472e-01
 1.072935e+00  9.270649e-01
 1.074489e+00  9.255112e-01
 1.076012e+00  9.239880e-01
 1.077503e+00  9.224972e-01
 1.078959e+00  9.210407e-01
 1.080380e+00  9.196203e-01
 1.081762e+00  9.182377e-01
 1.083105e+00  9.168947e-01
 1.084407e+00  9.155929e-01
 1.085666e+00  9.143340e-01
 1.086880e+00  9.131196e-01
 1.088049e+00  9.119511e-01
 1.089170e+00  9.108299e-01
 1.090242e+00  9.097576e-01
 1.091265e+00  9.087355e-01
 1.092235e+00  9.077647e-01
 1.093153e+00  9.068466e-01
 1.094018e+00  9.059822e-01
 1.094827e+00  9.051726e-01
 1.095581e+00  9.044189e-01
 1.096278e+00  9.037220e-01
 1.096917e+00  9.030828e-01
 1.097498e+00  9.025020e-01
 1.098020e+00  9.019804e-01
 1.098481e+00  9.015186e-01
 1.098883e+00  9.011172e-01
 1.099223e+00  9.007767e-01
 1.099502e+00  9.004976e-01
 1.099720e+00  9.002801e-01
 1.099875e+00  9.001245e-01
 1.099969e+00  9.000311e-01
 1.100000e+00  9.000000e-01
 1.000000e+00  1.000000e+00
 1.000031e+00  9.999689e-01
 1.000125e+00  9.998755e-01
 1.000280e+00  9.997199e-01
 1.000498e+00  9.995024e-01
 1.000777e+00  9.992233e-01
 1.001117e+00  9.988828e-01
 1.001519e+00  9.984814e-01
 1.001980e+00  9.980196e-01
 1.002502e+00  9.974980e-01
 1.003083e+00  9.969172e-01
 1.003722e+00  9.962780e-01
 1.004419e+00  9.955811e-01
 1.005173e+00  9.948274e-01
 1.005982e+00  9.940178e-01
 1.006847e+00  9.931534e-01
 1.007765e+00  9.922353e-01
 1.008735e+00  9.912645e-01
 1.009758e+00  9.902424e-01
 1.010830e+00  9.891701e-01
 1.011951e+00  9.880489e-01
 1.013120e+00  9.868804e-01
 1.014334e+00  9.856660e-01
 1.015593e+00  9.844071e-01
 1.016895e+00  9.831053e-01
 1.018238e+00  9.817623e-01
 1.019620e+00  9.803797e-01
 1.021041e+00  9.789593e-01
 1.022497e+00  9.775028e-01
 1.023988e+00  9.760120e-01
 1.025511e+00  9.744888e-01
 1.027065e+00  9.729351e-01
 1.028647e+00  9.713528e-01
 1.030256e+00  9.697439e-01
 1.031890e+00  9.681105e-01
 1.033546e+00  9.664544e-01
 1.035222e+00  9.647779e-01
 1.036917e+00  9.630830e-01
 1.038628e+00  9.613717e-01
 1.040354e+00  9.596463e-01
 1.042091e+00  9.579089e-01
 1.043838e+00  9.561616e-01
 1.045593e+00  9.544066e-01
 1.047354e+00  9.526462e-01
 1.049118e+00  9.508824e-01
 1.050882e+00  9.491176e-01
 1.052646e+00  9.473538e-01
 1.054407e+00  9.455934e-01
 1.056162e+00  9.438384e-01
 1.057909e+00  9.420911e-01
 1.059646e+00  9.403537e-01
 1.061372e+00  9.386283e-01
 1.063083e+00  9.369170e-01
 1.064778e+00  9.352221e-01
 1.066454e+00  9.335456e-01
 1.068110e+00  9.318895e-01
 1.069744e+00  9.302561e-01
 1.071353e+00  9.286472e-01
 1.072935e+00  9.270649e-01
 1.074489e+00  9.255112e-01
 1.076012e+00  9.239880e-01
 1.077503e+00  9.224972e-01
 1.078959e+00  9.210407e-01
 1.080380e+00  9.196203e-01
 1.081762e+00  9.182377e-01
 1.083105e+00  9.168947e-01
 1.084407e+00  9.155929e-01
 1.085666e+00  9.143340e-01
 1.086880e+00  9.131196e-01
 1.088049e+00  9.119511e-01
 1.089170e+00  9.108299e-01
 1.090242e+00  9.097576e-01
 1.091265e+00  9.087355e-01
 1.092235e+00  9.077647e-01
 1.093153e+00  9.068466e-01
 1.094018e+00  9.059822e-01
 1.094827e+00  9.051726e-01
 1.095581e+00  9.044189e-01
 1.096278e+00  9.037220e-01
 1.096917e+00  9.030828e-01
 1.097498e+00  9.025020e-01
 1.098020e+00  9.019804e-01
 1.098481e+00  9.015186e-01
 1.098883e+00  9.011172e-01
 1.099223e+00  9.007767e-01
 1.099502e+00  9.004976e-01
 1.099720e+00  9.002801e-01
 1.099875e+00  9.001245e-01
 1.099969e+00  9.000311e-01
 1.100000e+00  9.000000e-01
 1.000000e+00  1.000000e+00
 1.000031e+00  9.999689e-01
 1.000125e+00  9.998755e-01
 1.000280e+00  9.997199e-01
 1.000498e+00  9.995024e-01
 1.000777e+00  9.992233e-01
 1.001117e+00  9.988828e-01
 1.001519e+00  9.984814e-01
 1.001980e+00  9.980196e-01
 1.002502e+00  9.974980e-01
 1.003083e+00  9.969172e-01
 1.003722e+00  9.962780e-01
 1.004419e+00  9.955811e-01
 1.005173e+00  9.948274e-01
 1.005982e+00  9.940178e-01
 1.006847e+00  9.931534e-01
 1.007765e+00  9.922353e-01
 1.008735e+00  9.912645e-01
 1.009758e+00  9.902424e-01
 1.010830e+00  9.891701e-01
 1.011951e+00  9.880489e-01
 1.013120e+00  9.868804e-01
 1.014334e+00  9.856660e-01
 1.015593e+00  9.844071e-01
 1.016895e+00  9.831053e-01
 1.018238e+00  9.817623e-01
 1.019620e+00  9.803797e-01
 1.021041e+00  9.789593e-01
 1.022497e+00  9.775028e-01
 1.023988e+00  9.760120e-01
 1.025511e+00  9.744888e-01
 1.027065e+00  9.729351e-01
 1.028647e+00  9.713528e-01
 1.030256e+00  9.697439e-01
 1.031890e+00  9.681105e-01
 1.033546e+00  9.664544e-01
 1.035222e+00  9.647779e-01
 1.036917e+00  9.630830e-01
 1.038628e+00  9.613717e-01
 1.040354e+00  9.596463e-01
 1.042091e+00  9.579089e-01
 1.043838e+00  9.561616e-01
 1.045593e+00  9.544066e-01
 1.047354e+00  9.526462e-01
 1.049118e+00  9.508824e-01
 1.050882e+00  9.491176e-01
 1.052646e+00  9.473538e-01
 1.054407e+00  9.455934e-01
 1.056162e+00  9.438384e-01
 1.057909e+00  9.420911e-01
 1.059646e+00  9.403537e-01
 1.061372e+00  9.386283e-01
 1.063083e+00  9.369170e-01
 1.064778e+00  9.352221e-01
 1.066454e+00  9.335456e-01
 1.068110e+00  9.318895e-01
 1.069744e+00  9.302561e-01
 1.071353e+00  9.286472e-01
 1.072935e+00  9.270649e-01
 1.074489e+00  9.255112e-01
 1.076012e+00  9.239880e-01
 1.077503e+00  9.224972e-01
 1.078959e+00  9.210407e-01
 1.080380e+00  9.196203e-01
 1.081762e+00  9.182377e-01
 1.083105e+00  9.168947e-01
 1.084407e+00  9.155929e-01
 1.085666e+00  9.143340e-01
 1.086880e+00  9.131196e-01
 1.088049e+00  9.119511e-01
 1.089170e+00  9.108299e-01
 1.090242e+00  9.097576e-01
 1.091265e+00  9.087355e-01
 1.092235e+00  9.077647e-01
 1.093153e+00  9.068466e-01
 1.094018e+00  9.059822e-01
 1.094827e+00  9.051726e-01
 1.095581e+00  9.044189e-01
 1.096278e+00  9.037220e-01
 1.096917e+00  9.030828e-01
 1.097498e+00  9.025020e-01
 1.098020e+00  9.019804e-01
 1.098481e+00  9.015186e-01
 1.098883e+00  9.011172e-01
 1.099223e+00  9.007767e-01
 1.099502e+00  9.004976e-01
 1.099720e+00  9.002801e-01
 1.099875e+00  9.001245e-01
 1.099969e+00  9.000311e-01
 1.100000e+00  9.000000e-01
 1.000000e+00  1.000000e+00
 1.000031e+00  9.999689e-01
 1.000125e+00  9.998755e-01
 1.000280e+00  9.997199e-01
 1.000498e+00  9.995024e-01
 1.000777e+00  9.992233e-01
 1.001117e+00  9.988828e-01
 1.001519e+00  9.984814e-01
 1.001980e+00  9.980196e-01
 1.002502e+00  9.974980e-01
 1.003083e+00  9.969172e-01
 1.003722e+00  9.962780e-01
 1.004419e+00  9.955811e-01
 1.005173e+00  9.948274e-01
 1.005982e+00  9.940178e-01
 1.006847e+00  9.931534e-01
 1.007765e+00  9.922353e-01
 1.008735e+00  9.912645e-01
 1.009758e+00  9.902424e-01
 1.010830e+00  9.891701e-01
 1.011951e+00  9.880489e-01
 1.013120e+00  9.868804e-01
 1.014334e+00  9.856660e-01
 1.015593e+00  9.844071e-01
 1.016895e+00  9.831053e-01
 1.018238e+00  9.817623e-01
 1.019620e+00  9.803797e-01
 1.021041e+00  9.789593e-01
 1.022497e+00  9.775028e-01
 1.023988e+00  9.760120e-01
 1.025511e+00  9.744888e-01
 1.027065e+00  9.729351e-01
 1.028647e+00  9.713528e-01
 1.030256e+00  9.697439e-01
 1.031890e+00  9.681105e-01
 1.033546e+00  9.664544e-01
 1.035222e+00  9.647779e-01
 1.036917e+00  9.630830e-01
 1.038628e+00  9.613717e-01
 1.040354e+00  9.596463e-01
 1.042091e+00  9.579089e-01
 1.043838e+00  9.561616e-01
 1.045593e+00  9.544066e-01
 1.047354e+00  9.526462e-01
 1.049118e+00  9.508824e-01
 1.050882e+00  9.491176e-01
 1.052646e+00  9.473538e-01
 1.054407e+00  9.455934e-01
 1.056162e+00  9.438384e-01
 1.057909e+00  9.420911e-01
 1.059646e+00  9.403537e-01
 1.061372e+00  9.386283e-01
 1.063083e+00  9.369170e-01
 1.064778e+00  9.352221e-01
 1.066454e+00  9.335456e-01
 1.068110e+00  9.318895e-01
 1.069744e+00  9.302561e-01
 1.071353e+00  9.286472e-01
 1.072935e+00  9.270649e-01
 1.074489e+00  9.255112e-01
 1.076012e+00  9.239880e-01
 1.077503e+00  9.224972e-01
 1.078959e+00  9.210407e-01
 1.080380e+00  9.196203e-01
 1.081762e+00  9.182377e-01
 1.083105e+00  9.168947e-01
 1.084407e+00  9.155929e-01
 1.085666e+00  9.143340e-01
 1.086880e+00  9.131196e-01
 1.088049e+00  9.119511e-01
 1.089170e+00  9.108299e-01
 1.090242e+00  9.097576e-01
 1.091265e+00  9.087355e-01
 1.092235e+00  9.077647e-01
 1.093153e+00  9.068466e-01
 1.094018e+00  9.059822e-01
 1.094827e+00  9.051726e-01
 1.095581e+00  9.044189e-01
 1.096278e+00  9.037220e-01
 1.096917e+00  9.030828e-01
 1.097498e+00  9.025020e-01
 1.098020e+00  9.019804e-01
 1.098481e+00  9.015186e-01
 1.098883e+00  9.011172e-01
 1.099223e+00  9.007767e-01
 1.099502e+00  9.004976e-01
 1.099720e+00  9.002801e-01
 1.099875e+00  9.001245e-01
 1.099969e+00  9.000311e-01
 1.100000e+00  9.000000e-01
 1.000000e+00  1.000000e+00
 1.000031e+00  9.999689e-01
 1.000125e+00  9.998755e-01
 1.000280e+00  9.997199e-01
 1.000498e+00  9.995024e-01
 1.000777e+00  9.992233e-01
 1.001117e+00  9.988828e-01
 1.001519e+00  9.984814e-01
 1.001980e+00  9.980196e-01
 1.002502e+00  9.974980e-01
 1.003083e+00  9.969172e-01
 1.003722e+00  9.962780e-01
 1.004419e+00  9.955811e-01
 1.005173e+00  9.948274e-01
 1.005982e+00  9.940178e-01
 1.006847e+00  9.931534e-01
 1.007765e+00  9.922353e-01
 1.008735e+00  9.912645e-01
 1.009758e+00  9.902424e-01
 1.010830e+00  9.891701e-01
 1.011951e+00  9.880489e-01
 1.013120e+00  9.868804e-01
 1.014334e+00  9.856660e-01
 1.015593e+00  9.844071e-01
 1.016895e+00  9.831053e-01
 1.018238e+00  9.817623e-01
 1.019620e+00  9.803797e-01
 1.021041e+00  9.789593e-01
 1.022497e+00  9.775028e-01
 1.023988e+00  9.760120e-01
 1.025511e+00  9.744888e-01
 1.027065e+00  9.729351e-01
 1.028647e+00  9.713528e-01
 1.030256e+00  9.697439e-01
 1.031890e+00  9.681105e-01
 1.033546e+00  9.664544e-01
 1.035222e+00  9.647779e-01
 1.036917e+00  9.630830e-01
 1.038628e+00  9.613717e-01
 1.040354e+00  9.596463e-01
 1.042091e+00  9.579089e-01
 1.043838e+00  9.561616e-01
 1.045593e+00  9.544066e-01
 1.047354e+00  9.526462e-01
 1.049118e+00  9.508824e-01
 1.050882e+00  9.491176e-01
 1.052646e+00  9.473538e-01
 1.054407e+00  9.455934e-01
 1.056162e+00  9.438384e-01
 1.057909e+00  9.420911e-01
 1.059646e+00  9.403537e-01
 1.061372e+00  9.386283e-01
 1.063083e+00  9.369170e-01
 1.064778e+00  9.352221e-01
 1.066454e+00  9.335456e-01
 1.068110e+00  9.318895e-01
 1.069744e+00  9.302561e-01
 1.071353e+00  9.286472e-01
 1.072935e+00  9.270649e-01
 1.074489e+00  9.255112e-01
 1.076012e+00  9.239880e-01
 1.077503e+00  9.224972e-01
 1.078959e+00  9.210407e-01
 1.080380e+00  9.196203e-01
 1.081762e+00  9.182377e-01
 1.083105e+00  9.168947e-01
 1.084407e+00  9.155929e-01
 1.085666e+00  9.143340e-01
 1.086880e+00  9.131196e-01
 1.088049e+00  9.119511e-01
 1.089170e+00  9.108299e-01
 1.090242e+00  9.097576e-01
 1.091265e+00  9.087355e-01
 1.092235e+00  9.077647e-01
 1.093153e+00  9.068466e-01
 1.094018e+00  9.059822e-01
 1.094827e+00  9.051726e-01
 1.095581e+00  9.044189e-01
 1.096278e+00  9.037220e-01
 1.096917e+00  9.030828e-01
 1.097498e+00  9.025020e-01
 1.098020e+00  9.019804e-01
 1.098481e+00  9.015186e-01
 1.098883e+00  9.011172e-01
 1.099223e+00  9.007767e-01
 1.099502e+00  9.004976e-01
 1.099720e+00  9.002801e-01
 1.099875e+00  9.001245e-01
 1.099969e+00  9.000311e-01
 1.100000e+00  9.000000e-01
 1.000000e+00  1.000000e+00
 1.000031e+00  9.999689e-01
 1.000125e+00  9.998755e-01
 1.000280e+00  9.997199e-01
 1.000498e+00  9.995024e-01
 1.000777e+00  9.992233e-01
 1.001117e+00  9.988828e-01
 1.001519e+00  9.984814e-01
 1.001980e+00  9.980196e-01
 1.002502e+00  9.974980e-01
 1.003083e+00  9.969172e-01
 1.003722e+00  9.962780e-01
 1.004419e+00  9.955811e-01
 1.005173e+00  9.948274e-01
 1.005982e+00  9.940178e-01
 1.006847e+00  9.931534e-01
 1.007765e+00  9.922353e-01
 1.008735e+00  9.912645e-01
 1.009758e+00  9.902424e-01
 1.010830e+00  9.891701e-01
 1.011951e+00  9.880489e-01
 1.013120e+00  9.868804e-01
 1.014334e+00  9.856660e-01
 1.015593e+00  9.844071e-01
 1.016895e+00  9.831053e-01
 1.018238e+00  9.817623e-01
 1.019620e+00  9.803797e-01
 1.021041e+00  9.789593e-01
 1.022497e+00  9.775028e-01
 1.023988e+00  9.760120e-01
 1.025511e+00  9.744888e-01
 1.027065e+00  9.729351e-01
 1.028647e+00  9.713528e-01
 1.030256e+00  9.697439e-01
 1.031890e+00  9.681105e-01
 1.033546e+00  9.664544e-01
 1.035222e+00  9.647779e-01
 1.036917e+00  9.630830e-01
 1.038628e+00  9.613717e-01
 1.040354e+00  9.596463e-01
 1.042091e+00  9.579089e-01
 1.043838e+00  9.561616e-01
 1.045593e+00  9.544066e-01
 1.047354e+00  9.526462e-01
 1.049118e+00  9.508824e-01
 1.050882e+00  9.491176e-01
 1.052646e+00  9.473538e-01
 1.054407e+00  9.455934e-01
 1.056162e+00  9.438384e-01
 1.057909e+00  9.420911e-01
 1.059646e+00  9.403537e-01
 1.061372e+00  9.386283e-01
 1.063083e+00  9.369170e-01
 1.064778e+00  9.352221e-01
 1.066454e+00  9.335456e-01
 1.068110e+00  9.318895e-01
 1.069744e+00  9.302561e-01
 1.071353e+00  9.286472e-01
 1.072935e+00  9.270649e-01
 1.074489e+00  9.255112e-01
 1.076012e+00  9.239880e-01
 1.077503e+00  9.224972e-01
 1.078959e+00  9.210407e-01
 1.080380e+00  9.196203e-01
 1.081762e+00  9.182377e-01
 1.083105e+00  9.168947e-01
 1.084407e+00  9.155929e-01
 1.085666e+00  9.143340e-01
 1.086880e+00  9.131196e-01
 1.088049e+00  9.119511e-01
 1.089170e+00  9.108299e-01
 1.090242e+00  9.097576e-01
 1.091265e+00  9.087355e-01
 1.092235e+00  9.077647e-01
 1.093153e+00  9.068466e-01
 1.094018e+00  9.059822e-01
 1.094827e+00  9.051726e-01
 1.095581e+00  9.044189e-01
 1.096278e+00  9.037220e-01
 1.096917e+00  9.030828e-01
 1.097498e+00  9.025020e-01
 1.098020e+00  9.019804e-01
 1.098481e+00  9.015186e-01
 1.098883e+00  9.011172e-01
 1.099223e+00  9.007767e-01
 1.099502e+00  9.004976e-01
 1.099720e+00  9.002801e-01
 1.099875e+00  9.001245e-01
 1.099969e+00  9.000311e-01
 1.100000e+00  9.000000e-01
 1.000000e+00  1.000000e+00
 1.000031e+00  9.999689e-01
 1.000125e+00  9.998755e-01
 1.000280e+00  9.997199e-01
 1.000498e+00  9.995024e-01
 1.000777e+00  9.992233e-01
 1.001117e+00  9.988828e-01
 1.001519e+00  9.984814e-01
 1.001980e+00  9.980196e-01
 1.002502e+00  9.974980e-01
 1.003083e+00  9.969172e-01
 1.003722e+00  9.962780e-01
 1.004419e+00  9.955811e-01
 1.005173e+00  9.948274e-01
 1.005982e+00  9.940178e-01
 1.006847e+00  9.931534e-01
 1.007765e+00  9.922353e-01
 1.008735e+00  9.912645e-01
 1.009758e+00  9.902424e-01
 1.010830e+00  9.891701e-01
 1.011951e+00  9.880489e-01
 1.013120e+00  9.868804e-01
 1.014334e+00  9.856660e-01
 1.015593e+00  9.844071e-01
 1.016895e+00  9.831053e-01
 1.018238e+00  9.817623e-01
 1.019620e+00  9.803797e-01
 1.021041e+00  9.789593e-01
 1.022497e+00  9.775028e-01
 1.023988e+00  9.760120e-01
 1.025511e+00  9.744888e-01
 1.027065e+00  9.729351e-01
 1.028647e+00  9.713528e-01
 1.030256e+00  9.697439e-01
 1.031890e+00  9.681105e-01
 1.033546e+00  9.664544e-01
 1.035222e+00  9.647779e-01
 1.036917e+00  9.630830e-01
 1.038628e+00  9.613717e-01
 1.040354e+00  9.596463e-01
 1.042091e+00  9.579089e-01
 1.043838e+00  9.561616e-01
 1.045593e+00  9.544066e-01
 1.047354e+00  9.526462e-01
 1.049118e+00  9.508824e-01
 1.050882e+00  9.491176e-01
 1.052646e+00  9.473538e-01
 1.054407e+00  9.455934e-01
 1.056162e+00  9.438384e-01
 1.057909e+00  9.420911e-01
 1.059646e+00  9.403537e-01
 1.061372e+00  9.386283e-01
 1.063083e+00  9.369170e-01
 1.064778e+00  9.352221e-01
 1.066454e+00  9.335456e-01
 1.068110e+00  9.318895e-01
 1.069744e+00  9.302561e-01
 1.071353e+00  9.286472e-01
 1.072935e+00  9.270649e-01
 1.074489e+00  9.255112e-01
 1.076012e+00  9.239880e-01
 1.077503e+00  9.224972e-01
 1.078959e+00  9.210407e-01
 1.080380e+00  9.196203e-01
 1.081762e+00  9.182377e-01
 1.083105e+00  9.168947e-01
 1.084407e+00  9.155929e-01
 1.085666e+00  9.143340e-01
 1.086880e+00  9.131196e-01
 1.088049e+00  9.119511e-01
 1.089170e+00  9.108299e-01
 1.090242e+00  9.097576e-01
 1.091265e+00  9.087355e-01
 1.092235e+00  9.077647e-01
 1.093153e+00  9.068466e-01
 1.094018e+00  9.059822e-01
 1.094827e+00  9.051726e-01
 1.095581e+00  9.044189e-01
 1.096278e+00  9.037220e-01
 1.096917e+00  9.030828e-01
 1.097498e+00  9.025020e-01
 1.098020e+00  9.019804e-01
 1.098481e+00  9.015186e-01
 1.098883e+00  9.011172e-01
 1.099223e+00  9.007767e-01
 1.099502e+00  9.004976e-01
 1.099720e+00  9.002801e-01
 1.099875e+00  9.001245e-01
 1.099969e+00  9.000311e-01
 1.100000e+00  9.000000e-01
 1.000000e+00  1.000000e+00
 1.000031e+00  9.999689e-01
 1.000125e+00  9.998755e-01
 1.000280e+00  9.997199e-01
 1.000498e+00  9.995024e-01
 1.000777e+00  9.992233e-01
 1.001117e+00  9.988828e-01
 1.001519e+00  9.984814e-01
 1.001980e+00  9.980196e-01
 1.002502e+00  9.974980e-01
 1.003083e+00  9.969172e-01
 1.003722e+00  9.962780e-01
 1.004419e+00  9.955811e-01
 1.005173e+00  9.948274e-01
 1.005982e+00  9.940178e-01
 1.006847e+00  9.931534e-01
 1.007765e+00  9.922353e-01
 1.008735e+00  9.912645e-01
 1.009758e+00  9.902424e-01
 1.010830e+00  9.891701e-01
 1.011951e+00  9.880489e-01
 1.013120e+00  9.868804e-01
 1.014334e+00  9.856660e-01
 1.015593e+00  9.844071e-01
 1.016895e+00  9.831053e-01
 1.018238e+00  9.817623e-01
 1.019620e+00  9.803797e-01
 1.021041e+00  9.789593e-01
 1.022497e+00  9.775028e-01
 1.023988e+00  9.760120e-01
 1.025511e+00  9.744888e-01
 1.027065e+00  9.729351e-01
 1.028647e+00  9.713528e-01
 1.030256e+00  9.697439e-01
 1.031890e+00  9.681105e-01
 1.033546e+00  9.664544e-01
 1.035222e+00  9.647779e-01
 1.036917e+00  9.630830e-01
 1.038628e+00  9.613717e-01
 1.040354e+00  9.596463e-01
 1.042091e+00  9.579089e-01
 1.043838e+00  9.561616e-01
 1.045593e+00  9.544066e-01
 1.047354e+00  9.526462e-01
 1.049118e+00  9.508824e-01
 1.050882e+00  9.491176e-01
 1.052646e+00  9.473538e-01
 1.054407e+00  9.455934e-01
 1.056162e+00  9.438384e-01
 1.057909e+00  9.420911e-01
 1.059646e+00  9.403537e-01
 1.061372e+00  9.386283e-01
 1.063083e+00  9.369170e-01
 1.064778e+00  9.352221e-01
 1.066454e+00  9.335456e-01
 1.068110e+00  9.318895e-01
 1.069744e+00  9.302561e-01
 1.071353e+00  9.286472e-01
 1.072935e+00  9.270649e-01
 1.074489e+00  9.255112e-01
 1.076012e+00  9.239880e-01
 1.077503e+00  9.224972e-01
 1.078959e+00  9.210407e-01
 1.080380e+00  9.196203e-01
 1.081762e+00  9.182377e-01
 1.083105e+00  9.168947e-01
 1.084407e+00  9.155929e-01
 1.085666e+00  9.143340e-01
 1.086880e+00  9.131196e-01
 1.088049e+00  9.119511e-01
 1.089170e+00  9.108299e-01
 1.090242e+00  9.097576e-01
 1.091265e+00  9.087355e-01
 1.092235e+00  9.077647e-01
 1.093153e+00  9.068466e-01
 1.094018e+00  9.059822e-01
 1.094827e+00  9.051726e-01
 1.095581e+00  9.044189e-01
 1.096278e+00  9.037220e-01
 1.096917e+00  9.030828e-01
 1.097498e+00  9.025020e-01
 1.098020e+00  9.019804e-01
 1.098481e+00  9.015186e-01
 1.098883e+00  9.011172e-01
 1.099223e+00  9.007767e-01
 1.099502e+00  9.004976e-01
 1.099720e+00  9.002801e-01
 1.099875e+00  9.001245e-01
 1.099969e+00  9.000311e-01
 1.100000e+00  9.000000e-01
 1.000000e+00  1.000000e+00
 1.000031e+00  9.999689e-01
 1.000125e+00  9.998755e-01
 1.000280e+00  9.997199e-01
 1.000498e+00  9.995024e-01
 1.000777e+00  9.992233e-01
 1.001117e+00  9.988828e-01
 1.001519e+00  9.984814e-01
 1.001980e+00  9.980196e-01
 1.002502e+00  9.974980e-01
 1.003083e+00  9.969172e-01
 1.003722e+00  9.962780e-01
 1.004419e+00  9.955811e-01
 1.005173e+00  9.948274e-01
 1.005982e+00  9.940178e-01
 1.006847e+00  9.931534e-01
 1.007765e+00  9.922353e-01
 1.008735e+00  9.912645e-01
 1.009758e+00  9.902424e-01
 1.010830e+00  9.891701e-01
 1.011951e+00  9.880489e-01
 1.013120e+00  9.868804e-01
 1.014334e+00  9.856660e-01
 1.015593e+00  9.844071e-01
 1.016895e+00  9.831053e-01
 1.018238e+00  9.817623e-01
 1.019620e+00  9.803797e-01
 1.021041e+00  9.789593e-01
 1.022497e+00  9.775028e-01
 1.023988e+00  9.760120e-01
 1.025511e+00  9.744888e-01
 1.027065e+00  9.729351e-01
 1.028647e+00  9.713528e-01
 1.030256e+00  9.697439e-01
 1.031890e+00  9.681105e-01
 1.033546e+00  9.664544e-01
 1.035222e+00  9.647779e-01
 1.036917e+00  9.630830e-01
 1.038628e+00  9.613717e-01
 1.040354e+00  9.596463e-01
 1.042091e+00  9.579089e-01
 1.043838e+00  9.561616e-01
 1.045593e+00  9.544066e-01
 1.047354e+00  9.526462e-01
 1.049118e+00  9.508824e-01
 1.050882e+00  9.491176e-01
 1.052646e+00  9.473538e-01
 1.054407e+00  9.455934e-01
 1.056162e+00  9.438384e-01
 1.057909e+00  9.420911e-01
 1.059646e+00  9.403537e-01
 1.061372e+00  9.386283e-01
 1.063083e+00  9.369170e-01
 1.064778e+00  9.352221e-01
 1.066454e+00  9.335456e-01
 1.068110e+00  9.318895e-01
 1.069744e+00  9.302561e-01
 1.071353e+00  9.286472e-01
 1.072935e+00  9.270649e-01
 1.074489e+00  9.255112e-01
 1.076012e+00  9.239880e-01
 1.077503e+00  9.224972e-01
 1.078959e+00  9.210407e-01
 1.080380e+00  9.196203e-01
 1.081762e+00  9.182377e-01
 1.083105e+00  9.168947e-01
 1.084407e+00  9.155929e-01
 1.085666e+00  9.143340e-01
 1.086880e+00  9.131196e-01
 1.088049e+00  9.119511e-01
 1.089170e+00  9.108299e-01
 1.090242e+00  9.097576e-01
 1.091265e+00  9.087355e-01
 1.092235e+00  9.077647e-01
 1.093153e+00  9.068466e-01
 1.094018e+00  9.059822e-01
 1.094827e+00  9.051726e-01
 1.095581e+00  9.044189e-01
 1.096278e+00  9.037220e-01
 1.096917e+00  9.030828e-01
 1.097498e+00  9.025020e-01
 1.098020e+00  9.019804e-01
 1.098481e+00  9.015186e-01
 1.098883e+00  9.011172e-01
 1.099223e+00  9.007767e-01
 1.099502e+00  9.004976e-01
 1.099720e+00  9.002801e-01
 1.099875e+00  9.001245e-01
 1.099969e+00  9.000311e-01
 1.100000e+00  9.000000e-01
 1.000000e+00  1.000000e+00
 1.000031e+00  9.999689e-01
 1.000125e+00  9.998755e-01
 1.000280e+00  9.997199e-01
 1.000498e+00  9.995024e-01
 1.000777e+00  9.992233e-01
 1.001117e+00  9.988828e-01
 1.001519e+00  9.984814e-01
 1.001980e+00  9.980196e-01
 1.002502e+00  9.974980e-01
 1.003083e+00  9.969172e-01
 1.003722e+00  9.962780e-01
 1.004419e+00  9.955811e-01
 1.005173e+00  9.948274e-01
 1.005982e+00  9.940178e-01
 1.006847e+00  9.931534e-01
 1.007765e+00  9.922353e-01
 1.008735e+00  9.912645e-01
 1.009758e+00  9.902424e-01
 1.010830e+00  9.891701e-01
 1.011951e+00  9.880489e-01
 1.013120e+00  9.868804e-01
 1.014334e+00  9.856660e-01
 1.015593e+00  9.844071e-01
 1.016895e+00  9.831053e-01
 1.018238e+00  9.817623e-01
 1.019620e+00  9.803797e-01
 1.021041e+00  9.789593e-01
 1.022497e+00  9.775028e-01
 1.023988e+00  9.760120e-01
 1.025511e+00  9.744888e-01
 1.027065e+00  9.729351e-01
 1.028647e+00  9.713528e-01
 1.030256e+00  9.697439e-01
 1.031890e+00  9.681105e-01
 1.033546e+00  9.664544e-01
 1.035222e+00  9.647779e-01
 1.036917e+00  9.630830e-01
 1.038628e+00  9.613717e-01
 1.040354e+00  9.596463e-01
 1.042091e+00  9.579089e-01
 1.043838e+00  9.561616e-01
 1.045593e+00  9.544066e-01
 1.047354e+00  9.526462e-01
 1.049118e+00  9.508824e-01
 1.050882e+00  9.491176e-01
 1.052646e+00  9.473538e-01
 1.054407e+00  9.455934e-01
 1.056162e+00  9.438384e-01
 1.057909e+00  9.420911e-01
 1.059646e+00  9.403537e-01
 1.061372e+00  9.386283e-01
 1.063083e+00  9.369170e-01
 1.064778e+00  9.352221e-01
 1.066454e+00  9.335456e-01
 1.068110e+00  9.318895e-01
 1.069744e+00  9.302561e-01
 1.071353e+00  9.286472e-01
 1.072935e+00  9.270649e-01
 1.074489e+00  9.255112e-01
 1.076012e+00  9.239880e-01
 1.077503e+00  9.224972e-01
 1.078959e+00  9.210407e-01
 1.080380e+00  9.196203e-01
 1.081762e+00  9.182377e-01
 1.083105e+00  9.168947e-01
 1.084407e+00  9.155929e-01
 1.085666e+00  9.143340e-01
 1.086880e+00  9.131196e-01
 1.088049e+00  9.119511e-01
 1.089170e+00  9.108299e-01
 1.090242e+00  9.097576e-01
 1.091265e+00  9.087355e-01
 1.092235e+00  9.077647e-01
 1.093153e+00  9.068466e-01
 1.094018e+00  9.059822e-01
 1.094827e+00  9.051726e-01
 1.095581e+00  9.044189e-01
 1.096278e+00  9.037220e-01
 1.096917e+00  9.030828e-01
 1.097498e+00  9.025020e-01
 1.098020e+00  9.019804e-01
 1.098481e+00  9.015186e-01
 1.098883e+00  9.011172e-01
 1.099223e+00  9.007767e-01
 1.099502e+00  9.004976e-01
 1.099720e+00  9.002801e-01
 1.099875e+00  9.001245e-01
 1.099969e+00  9.000311e-01
 1.100000e+00  9.000000e-01
 1.000000e+00  1.000000e+00
 1.000031e+00  9.999689e-01
 1.000125e+00  9.998755e-01
 1.000280e+00  9.997199e-01
 1.000498e+00  9.995024e-01
 1.000777e+00  9.992233e-01
 1.001117e+00  9.988828e-01
 1.001519e+00  9.984814e-01
 1.001980e+00  9.980196e-01
 1.002502e+00  9.974980e-01
 1.003083e+00  9.969172e-01
 1.003722e+00  9.962780e-01
 1.004419e+00  9.955811e-01
 1.005173e+00  9.948274e-01
 1.005982e+00  9.940178e-01
 1.006847e+00  9.931534e-01
 1.007765e+00  9.922353e-01
 1.008735e+00  9.912645e-01
 1.009758e+00  9.902424e-01
 1.010830e+00  9.891701e-01
 1.011951e+00  9.880489e-01
 1.013120e+00  9.868804e-01
 1.014334e+00  9.856660e-01
 1.015593e+00  9.844071e-01
 1.016895e+00  9.831053e-01
 1.018238e+00  9.817623e-01
 1.019620e+00  9.803797e-01
 1.021041e+00  9.789593e-01
 1.022497e+00  9.775028e-01
 1.023988e+00  9.760120e-01
 1.025511e+00  9.744888e-01
 1.027065e+00  9.729351e-01
 1.028647e+00  9.713528e-01
 1.030256e+00  9.697439e-01
 1.031890e+00  9.681105e-01
 1.033546e+00  9.664544e-01
 1.035222e+00  9.647779e-01
 1.036917e+00  9.630830e-01
 1.038628e+00  9.613717e-01
 1.040354e+00  9.596463e-01
 1.042091e+00  9.579089e-01
 1.043838e+00  9.561616e-01
 1.045593e+00  9.544066e-01
 1.047354e+00  9.526462e-01
 1.049118e+00  9.508824e-01
 1.050882e+00  9.491176e-01
 1.052646e+00  9.473538e-01
 1.054407e+00  9.455934e-01
 1.056162e+00  9.438384e-01
 1.057909e+00  9.420911e-01
 1.059646e+00  9.403537e-01
 1.061372e+00  9.386283e-01
 1.063083e+00  9.369170e-01
 1.064778e+00  9.352221e-01
 1.066454e+00  9.335456e-01
 1.068110e+00  9.318895e-01
 1.069744e+00  9.302561e-01
 1.071353e+00  9.286472e-01
 1.072935e+00  9.270649e-01
 1.074489e+00  9.255112e-01
 1.076012e+00  9.239880e-01
 1.077503e+00  9.224972e-01
 1.078959e+00  9.210407e-01
 1.080380e+00  9.196203e-01
 1.081762e+00  9.182377e-01
 1.083105e+00  9.168947e-01
 1.084407e+00  9.155929e-01
 1.085666e+00  9.143340e-01
 1.086880e+00  9.131196e-01
 1.088049e+00  9.119511e-01
 1.089170e+00  9.108299e-01
 1.090242e+00  9.097576e-01
 1.091265e+00  9.087355e-01
 1.092235e+00  9.077647e-01
 1.093153e+00  9.068466e-01
 1.094018e+00  9.059822e-01
 1.094827e+00  9.051726e-01
 1.095581e+00  9.044189e-01
 1.096278e+00  9.037220e-01
 1.096917e+00  9.030828e-01
 1.097498e+00  9.025020e-01
 1.098020e+00  9.019804e-01
 1.098481e+00  9.015186e-01
 1.098883e+00  9.011172e-01
 1.099223e+00  9.007767e-01
 1.099502e+00  9.004976e-01
 1.099720e+00  9.002801e-01
 1.099875e+00  9.001245e-01
 1.099969e+00  9.000311e-01
 1.100000e+00  9.000000e-01
 1.000000e+00  1.000000e+00
 1.000031e+00  9.999689e-01
 1.000125e+00  9.998755e-01
 1.000280e+00  9.997199e-01
 1.000498e+00  9.995024e-01
 1.000777e+00  9.992233e-01
 1.001117e+00  9.988828e-01
 1.001519e+00  9.984814e-01
 1.001980e+00  9.980196e-01
 1.002502e+00  9.974980e-01
 1.003083e+00  9.969172e-01
 1.003722e+00  9.962780e-01
 1.004419e+00  9.955811e-01
 1.005173e+00  9.948274e-01
 1.005982e+00  9.940178e-01
 1.006847e+00  9.931534e-01
 1.007765e+00  9.922353e-01
 1.008735e+00  9.912645e-01
 1.009758e+00  9.902424e-01
 1.010830e+00  9.891701e-01
 1.011951e+00  9.880489e-01
 1.013120e+00  9.868804e-01
 1.014334e+00  9.856660e-01
 1.015593e+00  9.844071e-01
 1.016895e+00  9.831053e-01
 1.018238e+00  9.817623e-01
 1.019620e+00  9.803797e-01
 1.021041e+00  9.789593e-01
 1.022497e+00  9.775028e-01
 1.023988e+00  9.760120e-01
 1.025511e+00  9.744888e-01
 1.027065e+00  9.729351e-01
 1.028647e+00  9.713528e-01
 1.030256e+00  9.697439e-01
 1.031890e+00  9.681105e-01
 1.033546e+00  9.664544e-01
 1.035222e+00  9.647779e-01
 1.036917e+00  9.630830e-01
 1.038628e+00  9.613717e-01
 1.040354e+00  9.596463e-01
 1.042091e+00  9.579089e-01
 1.043838e+00  9.561616e-01
 1.045593e+00  9.544066e-01
 1.047354e+00  9.526462e-01
 1.049118e+00  9.508824e-01
 1.050882e+00  9.491176e-01
 1.052646e+00  9.473538e-01
 1.054407e+00  9.455934e-01
 1.056162e+00  9.438384e-01
 1.057909e+00  9.420911e-01
 1.059646e+00  9.403537e-01
 1.061372e+00  9.386283e-01
 1.063083e+00  9.369170e-01
 1.064778e+00  9.352221e-01
 1.066454e+00  9.335456e-01
 1.068110e+00  9.318895e-01
 1.069744e+00  9.302561e-01
 1.071353e+00  9.286472e-01
 1.072935e+00  9.270649e-01
 1.074489e+00  9.255112e-01
 1.076012e+00  9.239880e-01
 1.077503e+00  9.224972e-01
 1.078959e+00  9.210407e-01
 1.080380e+00  9.196203e-01
 1.081762e+00  9.182377e-01
 1.083105e+00  9.168947e-01
 1.084407e+00  9.155929e-01
 1.085666e+00  9.143340e-01
 1.086880e+00  9.131196e-01
 1.088049e+00  9.119511e-01
 1.089170e+00  9.108299e-01
 1.090242e+00  9.097576e-01
 1.091265e+00  9.087355e-01
 1.092235e+00  9.077647e-01
 1.093153e+00  9.068466e-01
 1.094018e+00  9.059822e-01
 1.094827e+00  9.051726e-01
 1.095581e+00  9.044189e-01
 1.096278e+00  9.037220e-01
 1.096917e+00  9.030828e-01
 1.097498e+00  9.025020e-01
 1.098020e+00  9.019804e-01
 1.098481e+00  9.015186e-01
 1.098883e+00  9.011172e-01
 1.099223e+00  9.007767e-01
 1.099502e+00  9.004976e-01
 1.099720e+00  9.002801e-01
 1.099875e+00  9.001245e-01
 1.099969e+00  9.000311e-01
 1.100000e+00  9.000000e-01
 1.000000e+00  1.000000e+00
 1.000031e+00  9.999689e-01
 1.000125e+00  9.998755e-01
 1.000280e+00  9.997199e-01
 1.000498e+00  9.995024e-01
 1.000777e+00  9.992233e-01
 1.001117e+00  9.988828e-01
 1.001519e+00  9.984814e-01
 1.001980e+00  9.980196e-01
 1.002502e+00  9.974980e-01
 1.003083e+00  9.969172e-01
 1.003722e+00  9.962780e-01
 1.004419e+00  9.955811e-01
 1.005173e+00  9.948274e-01
 1.005982e+00  9.940178e-01
 1.006847e+00  9.931534e-01
 1.007765e+00  9.922353e-01
 1.008735e+00  9.912645e-01
 1.009758e+00  9.902424e-01
 1.010830e+00  9.891701e-01
 1.011951e+00  9.880489e-01
 1.013120e+00  9.868804e-01
 1.014334e+00  9.856660e-01
 1.015593e+00  9.844071e-01
 1.016895e+00  9.831053e-01
 1.018238e+00  9.817623e-01
 1.019620e+00  9.803797e-01
 1.021041e+00  9.789593e-01
 1.022497e+00  9.775028e-01
 1.023988e+00  9.760120e-01
 1.025511e+00  9.744888e-01
 1.027065e+00  9.729351e-01
 1.028647e+00  9.713528e-01
 1.030256e+00  9.697439e-01
 1.031890e+00  9.681105e-01
 1.033546e+00  9.664544e-01
 1.035222e+00  9.647779e-01
 1.036917e+00  9.630830e-01
 1.038628e+00  9.613717e-01
 1.040354e+00  9.596463e-01
 1.042091e+00  9.579089e-01
 1.043838e+00  9.561616e-01
 1.045593e+00  9.544066e-01
 1.047354e+00  9.526462e-01
 1.049118e+00  9.508824e-01
 1.050882e+00  9.491176e-01
 1.052646e+00  9.473538e-01
 1.054407e+00  9.455934e-01
 1.056162e+00  9.438384e-01
 1.057909e+00  9.420911e-01
 1.059646e+00  9.403537e-01
 1.061372e+00  9.386283e-01
 1.063083e+00  9.369170e-01
 1.064778e+00  9.352221e-01
 1.066454e+00  9.335456e-01
 1.068110e+00  9.318895e-01
 1.069744e+00  9.302561e-01
 1.071353e+00  9.286472e-01
 1.072935e+00  9.270649e-01
 1.074489e+00  9.255112e-01
 1.076012e+00  9.239880e-01
 1.077503e+00  9.224972e-01
 1.078959e+00  9.210407e-01
 1.080380e+00  9.196203e-01
 1.081762e+00  9.182377e-01
 1.083105e+00  9.168947e-01
 1.084407e+00  9.155929e-01
 1.085666e+00  9.143340e-01
 1.086880e+00  9.131196e-01
 1.088049e+00  9.119511e-01
 1.089170e+00  9.108299e-01
 1.090242e+00  9.097576e-01
 1.091265e+00  9.087355e-01
 1.092235e+00  9.077647e-01
 1.093153e+00  9.068466e-01
 1.094018e+00  9.059822e-01
 1.094827e+00  9.051726e-01
 1.095581e+00  9.044189e-01
 1.096278e+00  9.037220e-01
 1.096917e+00  9.030828e-01
 1.097498e+00  9.025020e-01
 1.098020e+00  9.019804e-01
 1.098481e+00  9.015186e-01
 1.098883e+00  9.011172e-01
 1.099223e+00  9.007767e-01
 1.099502e+00  9.004976e-01
 1.099720e+00  9.002801e-01
 1.099875e+00  9.001245e-01
 1.099969e+00  9.000311e-01
 1.100000e+00  9.000000e-01
 1.000000e+00  1.000000e+00
 1.000031e+00  9.999689e-01
 1.000125e+00  9.998755e-01
 1.000280e+00  9.997199e-01
 1.000498e+00  9.995024e-01
 1.000777e+00  9.992233e-01
 1.001117e+00  9.988828e-01
 1.001519e+00  9.984814e-01
 1.001980e+00  9.980196e-01
 1.002502e+00  9.974980e-01
 1.003083e+00  9.969172e-01
 1.003722e+00  9.962780e-01
 1.004419e+00  9.955811e-01
 1.005173e+00  9.948274e-01
 1.005982e+00  9.940178e-01
 1.006847e+00  9.931534e-01
 1.007765e+00  9.922353e-01
 1.008735e+00  9.912645e-01
 1.009758e+00  9.902424e-01
 1.010830e+00  9.891701e-01
 1.011951e+00  9.880489e-01
 1.013120e+00  9.868804e-01
 1.014334e+00  9.856660e-01
 1.015593e+00  9.844071e-01
 1.016895e+00  9.831053e-01
 1.018238e+00  9.817623e-01
 1.019620e+00  9.803797e-01
 1.021041e+00  9.789593e-01
 1.022497e+00  9.775028e-01
 1.023988e+00  9.760120e-01
 1.025511e+00  9.744888e-01
 1.027065e+00  9.729351e-01
 1.028647e+00  9.713528e-01
 1.030256e+00  9.697439e-01
 1.031890e+00  9.681105e-01
 1.033546e+00  9.664544e-01
 1.035222e+00  9.647779e-01
 1.036917e+00  9.630830e-01
 1.038628e+00  9.613717e-01
 1.040354e+00  9.596463e-01
 1.042091e+00  9.579089e-01
 1.043838e+00  9.561616e-01
 1.045593e+00  9.544066e-01
 1.047354e+00  9.526462e-01
 1.049118e+00  9.508824e-01
 1.050882e+00  9.491176e-01
 1.052646e+00  9.473538e-01
 1.054407e+00  9.455934e-01
 1.056162e+00  9.438384e-01
 1.057909e+00  9.420911e-01
 1.059646e+00  9.403537e-01
 1.061372e+00  9.386283e-01
 1.063083e+00  9.369170e-01
 1.064778e+00  9.352221e-01
 1.066454e+00  9.335456e-01
 1.068110e+00  9.318895e-01
 1.069744e+00  9.302561e-01
 1.071353e+00  9.286472e-01
 1.072935e+00  9.270649e-01
 1.074489e+00  9.255112e-01
 1.076012e+00  9.239880e-01
 1.077503e+00  9.224972e-01
 1.078959e+00  9.210407e-01
 1.080380e+00  9.196203e-01
 1.081762e+00  9.182377e-01
 1.083105e+00  9.168947e-01
 1.084407e+00  9.155929e-01
 1.085666e+00  9.143340e-01
 1.086880e+00  9.131196e-01
 1.088049e+00  9.119511e-01
 1.089170e+00  9.108299e-01
 1.090242e+00  9.097576e-01
 1.091265e+00  9.087355e-01
 1.092235e+00  9.077647e-01
 1.093153e+00  9.068466e-01
 1.094018e+00  9.059822e-01
 1.094827e+00  9.051726e-01
 1.095581e+00  9.044189e-01
 1.096278e+00  9.037220e-01
 1.096917e+00  9.030828e-01
 1.097498e+00  9.025020e-01
 1.098020e+00  9.019804e-01
 1.098481e+00  9.015186e-01
 1.098883e+00  9.011172e-01
 1.099223e+00  9.007767e-01
 1.099502e+00  9.004976e-01
 1.099720e+00  9.002801e-01
 1.099875e+00  9.001245e-01
 1.099969e+00  9.000311e-01
 1.100000e+00  9.000000e-01
 1.000000e+00  1.000000e+00
 1.000031e+00  9.999689e-01
 1.000125e+00  9.998755e-01
 1.000280e+00  9.997199e-01
 1.000498e+00  9.995024e-01
 1.000777e+00  9.992233e-01
 1.001117e+00  9.988828e-01
 1.001519e+00  9.984814e-01
 1.001980e+00  9.980196e-01
 1.002502e+00  9.974980e-01
 1.003083e+00  9.969172e-01
 1.003722e+00  9.962780e-01
 1.004419e+00  9.955811e-01
 1.005173e+00  9.948274e-01
 1.005982e+00  9.940178e-01
 1.006847e+00  9.931534e-01
 1.007765e+00  9.922353e-01
 1.008735e+00  9.912645e-01
 1.009758e+00  9.902424e-01
 1.010830e+00  9.891701e-01
 1.011951e+00  9.880489e-01
 1.013120e+00  9.868804e-01
 1.014334e+00  9.856660e-01
 1.015593e+00  9.844071e-01
 1.016895e+00  9.831053e-01
 1.018238e+00  9.817623e-01
 1.019620e+00  9.803797e-01
 1.021041e+00  9.789593e-01
 1.022497e+00  9.775028e-01
 1.023988e+00  9.760120e-01
 1.025511e+00  9.744888e-01
 1.027065e+00  9.729351e-01
 1.028647e+00  9.713528e-01
 1.030256e+00  9.697439e-01
 1.031890e+00  9.681105e-01
 1.033546e+00  9.664544e-01
 1.035222e+00  9.647779e-01
 1.036917e+00  9.630830e-01
 1.038628e+00  9.613717e-01
 1.040354e+00  9.596463e-01
 1.042091e+00  9.579089e-01
 1.043838e+00  9.561616e-01
 1.045593e+00  9.544066e-01
 1.047354e+00  9.526462e-01
 1.049118e+00  9.508824e-01
 1.050882e+00  9.491176e-01
 1.052646e+00  9.473538e-01
 1.054407e+00  9.455934e-01
 1.056162e+00  9.438384e-01
 1.057909e+00  9.420911e-01
 1.059646e+00  9.403537e-01
 1.061372e+00  9.386283e-01
 1.063083e+00  9.369170e-01
 1.064778e+00  9.352221e-01
 1.066454e+00  9.335456e-01
 1.068110e+00  9.318895e-01
 1.069744e+00  9.302561e-01
 1.071353e+00  9.286472e-01
 1.072935e+00  9.270649e-01
 1.074489e+00  9.255112e-01
 1.076012e+00  9.239880e-01
 1.077503e+00  9.224972e-01
 1.078959e+00  9.210407e-01
 1.080380e+00  9.196203e-01
 1.081762e+00  9.182377e-01
 1.083105e+00  9.168947e-01
 1.084407e+00  9.155929e-01
 1.085666e+00  9.143340e-01
 1.086880e+00  9.131196e-01
 1.088049e+00  9.119511e-01
 1.089170e+00  9.108299e-01
 1.090242e+00  9.097576e-01
 1.091265e+00  9.087355e-01
 1.092235e+00  9.077647e-01
 1.093153e+00  9.068466e-01
 1.094018e+00  9.059822e-01
 1.094827e+00  9.051726e-01
 1.095581e+00  9.044189e-01
 1.096278e+00  9.037220e-01
 1.096917e+00  9.030828e-01
 1.097498e+00  9.025020e-01
 1.098020e+00  9.019804e-01
 1.098481e+00  9.015186e-01
 1.098883e+00  9.011172e-01
 1.099223e+00  9.007767e-01
 1.099502e+00  9.004976e-01
 1.099720e+00  9.002801e-01
 1.099875e+00  9.001245e-01
 1.099969e+00  9.000311e-01
 1.100000e+00  9.000000e-01
 1.000000e+00  1.000000e+00
 1.000031e+00  9.999689e-01
 1.000125e+00  9.998755e-01
 1.000280e+00  9.997199e-01
 1.000498e+00  9.995024e-01
 1.000777e+00  9.992233e-01
 1.001117e+00  9.988828e-01
 1.001519e+00  9.984814e-01
 1.001980e+00  9.980196e-01
 1.002502e+00  9.974980e-01
 1.003083e+00  9.969172e-01
 1.003722e+00  9.962780e-01
 1.004419e+00  9.955811e-01
 1.005173e+00  9.948274e-01
 1.005982e+00  9.940178e-01
 1.006847e+00  9.931534e-01
 1.007765e+00  9.922353e-01
 1.008735e+00  9.912645e-01
 1.009758e+00  9.902424e-01
 1.010830e+00  9.891701e-01
 1.011951e+00  9.880489e-01
 1.013120e+00  9.868804e-01
 1.014334e+00  9.856660e-01
 1.015593e+00  9.844071e-01
 1.016895e+00  9.831053e-01
 1.018238e+00  9.817623e-01
 1.019620e+00  9.803797e-01
 1.021041e+00  9.789593e-01
 1.022497e+00  9.775028e-01
 1.023988e+00  9.760120e-01
 1.025511e+00  9.744888e-01
 1.027065e+00  9.729351e-01
 1.028647e+00  9.713528e-01
 1.030256e+00  9.697439e-01
 1.031890e+00  9.681105e-01
 1.033546e+00  9.664544e-01
 1.035222e+00  9.647779e-01
 1.036917e+00  9.630830e-01
 1.038628e+00  9.613717e-01
 1.040354e+00  9.596463e-01
 1.042091e+00  9.579089e-01
 1.043838e+00  9.561616e-01
 1.045593e+00  9.544066e-01
 1.047354e+00  9.526462e-01
 1.049118e+00  9.508824e-01
 1.050882e+00  9.491176e-01
 1.052646e+00  9.473538e-01
 1.054407e+00  9.455934e-01
 1.056162e+00  9.438384e-01
 1.057909e+00  9.420911e-01
 1.059646e+00  9.403537e-01
 1.061372e+00  9.386283e-01
 1.063083e+00  9.369170e-01
 1.064778e+00  9.352221e-01
 1.066454e+00  9.335456e-01
 1.068110e+00  9.318895e-01
 1.069744e+00  9.302561e-01
 1.071353e+00  9.286472e-01
 1.072935e+00  9.270649e-01
 1.074489e+00  9.255112e-01
 1.076012e+00  9.239880e-01
 1.077503e+00  9.224972e-01
 1.078959e+00  9.210407e-01
 1.080380e+00  9.196203e-01
 1.081762e+00  9.182377e-01
 1.083105e+00  9.168947e-01
 1.084407e+00  9.155929e-01
 1.085666e+00  9.143340e-01
 1.086880e+00  9.131196e-01
 1.088049e+00  9.119511e-01
 1.089170e+00  9.108299e-01
 1.090242e+00  9.097576e-01
 1.091265e+00  9.087355e-01
 1.092235e+00  9.077647e-01
 1.093153e+00  9.068466e-01
 1.094018e+00  9.059822e-01
 1.094827e+00  9.051726e-01
 1.095581e+00  9.044189e-01
 1.096278e+00  9.037220e-01
 1.096917e+00  9.030828e-01
 1.097498e+00  9.025020e-01
 1.098020e+00  9.019804e-01
 1.098481e+00  9.015186e-01
 1.098883e+00  9.011172e-01
 1.099223e+00  9.007767e-01
 1.099502e+00  9.004976e-01
 1.099720e+00  9.002801e-01
 1.099875e+00  9.001245e-01
 1.099969e+00  9.000311e-01
 1.100000e+00  9.000000e-01
 1.000000e+00  1.000000e+00
 1.000031e+00  9.999689e-01
 1.000125e+00  9.998755e-01
 1.000280e+00  9.997199e-01
 1.000498e+00  9.995024e-01
 1.000777e+00  9.992233e-01
 1.001117e+00  9.988828e-01
 1.001519e+00  9.984814e-01
 1.001980e+00  9.980196e-01
 1.002502e+00  9.974980e-01
 1.003083e+00  9.969172e-01
 1.003722e+00  9.962780e-01
 1.004419e+00  9.955811e-01
 1.005173e+00  9.948274e-01
 1.005982e+00  9.940178e-01
 1.006847e+00  9.931534e-01
 1.007765e+00  9.922353e-01
 1.008735e+00  9.912645e-01
 1.009758e+00  9.902424e-01
 1.010830e+00  9.891701e-01
 1.011951e+00  9.880489e-01
 1.013120e+00  9.868804e-01
 1.014334e+00  9.856660e-01
 1.015593e+00  9.844071e-01
 1.016895e+00  9.831053e-01
 1.018238e+00  9.817623e-01
 1.019620e+00  9.803797e-01
 1.021041e+00  9.789593e-01
 1.022497e+00  9.775028e-01
 1.023988e+00  9.760120e-01
 1.025511e+00  9.744888e-01
 1.027065e+00  9.729351e-01
 1.028647e+00  9.713528e-01
 1.030256e+00  9.697439e-01
 1.031890e+00  9.681105e-01
 1.033546e+00  9.664544e-01
 1.035222e+00  9.647779e-01
 1.036917e+00  9.630830e-01
 1.038628e+00  9.613717e-01
 1.040354e+00  9.596463e-01
 1.042091e+00  9.579089e-01
 1.043838e+00  9.561616e-01
 1.045593e+00  9.544066e-01
 1.047354e+00  9.526462e-01
 1.049118e+00  9.508824e-01
 1.050882e+00  9.491176e-01
 1.052646e+00  9.473538e-01
 1.054407e+00  9.455934e-01
 1.056162e+00  9.438384e-01
 1.057909e+00  9.420911e-01
 1.059646e+00  9.403537e-01
 1.061372e+00  9.386283e-01
 1.063083e+00  9.369170e-01
 1.064778e+00  9.352221e-01
 1.066454e+00  9.335456e-01
 1.068110e+00  9.318895e-01
 1.069744e+00  9.302561e-01
 1.071353e+00  9.286472e-01
 1.072935e+00  9.270649e-01
 1.074489e+00  9.255112e-01
 1.076012e+00  9.239880e-01
 1.077503e+00  9.224972e-01
 1.078959e+00  9.210407e-01
 1.080380e+00  9.196203e-01
 1.081762e+00  9.182377e-01
 1.083105e+00  9.168947e-01
 1.084407e+00  9.155929e-01
 1.085666e+00  9.143340e-01
 1.086880e+00  9.131196e-01
 1.088049e+00  9.119511e-01
 1.089170e+00  9.108299e-01
 1.090242e+00  9.097576e-01
 1.091265e+00  9.087355e-01
 1.092235e+00  9.077647e-01
 1.093153e+00  9.068466e-01
 1.094018e+00  9.059822e-01
 1.094827e+00  9.051726e-01
 1.095581e+00  9.044189e-01
 1.096278e+00  9.037220e-01
 1.096917e+00  9.030828e-01
 1.097498e+00  9.025020e-01
 1.098020e+00  9.019804e-01
 1.098481e+00  9.015186e-01
 1.098883e+00  9.011172e-01
 1.099223e+00  9.007767e-01
 1.099502e+00  9.004976e-01
 1.099720e+00  9.002801e-01
 1.099875e+00  9.001245e-01
 1.099969e+00  9.000311e-01
 1.100000e+00  9.000000e-01
 1.000000e+00  1.000000e+00
 1.000031e+00  9.999689e-01
 1.000125e+00  9.998755e-01
 1.000280e+00  9.997199e-01
 1.000498e+00  9.995024e-01
 1.000777e+00  9.992233e-01
 1.001117e+00  9.988828e-01
 1.001519e+00  9.984814e-01
 1.001980e+00  9.980196e-01
 1.002502e+00  9.974980e-01
 1.003083e+00  9.969172e-01
 1.003722e+00  9.962780e-01
 1.004419e+00  9.955811e-01
 1.005173e+00  9.948274e-01
 1.005982e+00  9.940178e-01
 1.006847e+00  9.931534e-01
 1.007765e+00  9.922353e-01
 1.008735e+00  9.912645e-01
 1.009758e+00  9.902424e-01
 1.010830e+00  9.891701e-01
 1.011951e+00  9.880489e-01
 1.013120e+00  9.868804e-01
 1.014334e+00  9.856660e-01
 1.015593e+00  9.844071e-01
 1.016895e+00  9.831053e-01
 1.018238e+00  9.817623e-01
 1.019620e+00  9.803797e-01
 1.021041e+00  9.789593e-01
 1.022497e+00  9.775028e-01
 1.023988e+00  9.760120e-01
 1.025511e+00  9.744888e-01
 1.027065e+00  9.729351e-01
 1.028647e+00  9.713528e-01
 1.030256e+00  9.697439e-01
 1.031890e+00  9.681105e-01
 1.033546e+00  9.664544e-01
 1.035222e+00  9.647779e-01
 1.036917e+00  9.630830e-01
 1.038628e+00  9.613717e-01
 1.040354e+00  9.596463e-01
 1.042091e+00  9.579089e-01
 1.043838e+00  9.561616e-01
 1.045593e+00  9.544066e-01
 1.047354e+00  9.526462e-01
 1.049118e+00  9.508824e-01
 1.050882e+00  9.491176e-01
 1.052646e+00  9.473538e-01
 1.054407e+00  9.455934e-01
 1.056162e+00  9.438384e-01
 1.057909e+00  9.420911e-01
 1.059646e+00  9.403537e-01
 1.061372e+00  9.386283e-01
 1.063083e+00  9.369170e-01
 1.064778e+00  9.352221e-01
 1.066454e+00  9.335456e-01
 1.068110e+00  9.318895e-01
 1.069744e+00  9.302561e-01
 1.071353e+00  9.286472e-01
 1.072935e+00  9.270649e-01
 1.074489e+00  9.255112e-01
 1.076012e+00  9.239880e-01
 1.077503e+00  9.224972e-01
 1.078959e+00  9.210407e-01
 1.080380e+00  9.196203e-01
 1.081762e+00  9.182377e-01
 1.083105e+00  9.168947e-01
 1.084407e+00  9.155929e-01
 1.085666e+00  9.143340e-01
 1.086880e+00  9.131196e-01
 1.088049e+00  9.119511e-01
 1.089170e+00  9.108299e-01
 1.090242e+00  9.097576e-01
 1.091265e+00  9.087355e-01
 1.092235e+00  9.077647e-01
 1.093153e+00  9.068466e-01
 1.094018e+00  9.059822e-01
 1.094827e+00  9.051726e-01
 1.095581e+00  9.044189e-01
 1.096278e+00  9.037220e-01
 1.096917e+00  9.030828e-01
 1.097498e+00  9.025020e-01
 1.098020e+00  9.019804e-01
 1.098481e+00  9.015186e-01
 1.098883e+00  9.011172e-01
 1.099223e+00  9.007767e-01
 1.099502e+00  9.004976e-01
 1.099720e+00  9.002801e-01
 1.099875e+00  9.001245e-01
 1.099969e+00  9.000311e-01
 1.100000e+00  9.000000e-01
